! m062x def2-svp Opt TightSCF TightOpt CHELPG

%MaxCore 1900

%pal
 nprocs 8
end

%scf
 MaxIter 150
end

%geom
 MaxIter 150
end

* xyz 1 1
C           -1.92645281749253       -0.69492489610970       -1.82151703287116
C           -2.13111331521507       -1.44322075438940       -0.51240828255342
C           -2.03724466510318       -0.50097236323813        0.72496375542832
C           -3.15034695126688        0.49165546689064        0.66613453668851
C           -2.93845597614758        1.81795186694707        0.49396974592640
C           -1.63652389141319        2.33966624014422        0.43482495686073
C           -0.54336309323496        1.49070500966472        0.63804589306768
C           -0.69004214518211        0.14847730358005        0.82364726219334
C            0.48199264132939       -0.72673929034080        1.20269348033994
C            0.71394091906769       -0.62830164019524        2.71745982380471
C            1.69897976501083       -0.36810772812140        0.38228356583335
C            2.67670244150231        0.51253180773730        0.82753043542959
C            3.75176340413119        0.84344719774571        0.02018611245549
C            3.86764419841999        0.30193903361624       -1.24730321522561
C            2.90204950431810       -0.58059942622891       -1.70069201993474
C            1.83121364244523       -0.91128213966409       -0.89142209944017
H           -2.68969997986338        0.06931168680115       -1.94607595616380
H           -1.98450903372054       -1.38338376928283       -2.66230228554368
H           -0.95391294771747       -0.20807105888153       -1.83519525432329
H           -3.11647734617502       -1.91440245914937       -0.50857709159268
H           -1.38463151867187       -2.23446211116490       -0.42046242772988
H           -2.18263072902669       -1.15509949696832        1.60126515595275
H           -4.15274129078853        0.09183721931817        0.71896225847882
H           -3.77884912994720        2.49389037934919        0.41551650802952
H           -1.47994494997855        3.39507322068086        0.27994968712769
H            0.44728793078600        1.92341312665009        0.67024644092195
H            0.22922286267314       -1.76919517335125        0.97929722958078
H           -0.13621031080358       -1.05348142373418        3.24686045313685
H            1.60948010706210       -1.17750856927088        3.00058687313318
H            0.81582106626914        0.40759375487870        3.02996734853918
H            2.61009294885811        0.94699992620382        1.81308239028442
H            4.50244036255577        1.52981556118568        0.38527112961074
H            4.70557210536485        0.56325454922781       -1.87674105979897
H            2.98387605013898       -1.01298468253527       -2.68748628428178
H            1.08507014181530       -1.60452636799444       -1.25336203336571
*
