POSCAR file created from dimer generator
   1.0000000000000000     
    29.4686239299999997   -0.0699228200000000   -0.0508829300000000
    -0.0335788000000000   13.9991373299999999   -0.0137711200000000
    -3.2760659900000002   -0.0040951700000000   12.0236671499999996
   Al   C    H    O    Si
     1    16    19   152    75
Direct
  0.4436170222644917  0.6106235026017297  0.0917864165953569
  0.4775150367569213  0.5366858041514655  0.5415628586078808
  0.4561054475302257  0.6127211525460052  0.4538152861083942
  0.4852963601957029  0.7022395666933686  0.4731465516885408
  0.5260945535422642  0.7079666120983140  0.4349674412272264
  0.5535567988326943  0.7899119856475931  0.4514928249693654
  0.5397753078894652  0.8703480670302729  0.5037747611753035
  0.4990822911518408  0.8643360219152491  0.5458974493017764
  0.4826501036375826  0.9564383526980782  0.5887730470728744
  0.5101616691092653  0.9770877892330094  0.7095349410436086
  0.4860807216846558  0.0350851629159588  0.5064921465517001
  0.5055390187041896  0.1247398939705484  0.5367144633737763
  0.5140531603153831  0.1871910606533745  0.4557715802558407
  0.5033305975392003  0.1618747877612268  0.3431123251577425
  0.4829463368940239  0.0733448790023741  0.3102601513152181
  0.4756311679126502  0.0077018864376169  0.3909606942195914
  0.4725141934510980  0.7811193897285147  0.5294415506406901
  0.5132040399170316  0.5175258575288243  0.5379664886586424
  0.4556361362816728  0.4718299620976529  0.5277869282062048
  0.4796689072900436  0.5628290223859488  0.6256404334319746
  0.4199776393657413  0.6287064701601183  0.4567741265827178
  0.4543301340209875  0.5848192578047379  0.3702046989867491
  0.5357666220060434  0.6474846968076047  0.3910286506607998
  0.5856838582781343  0.7926724334960645  0.4241773422870770
  0.5654734760769270  0.9279440698704033  0.5323830789553429
  0.4451335583701963  0.9467097001632607  0.5858644072546129
  0.5068168502100218  0.9162538194528310  0.7624120677124731
  0.4965731146436728  0.0406233018013249  0.7421277228795180
  0.5477747477001623  0.9882627689571323  0.7165281405647397
  0.5153509182794925  0.1467777251382040  0.6237045115531639
  0.5300894954811756  0.2567070701871099  0.4819624344081228
  0.5099490969704593  0.2119948562440024  0.2820999288544473
  0.4723622897426297  0.0533544717402128  0.2225586910273573
  0.5112441899905513  0.9393928931473818  0.4194663207446334
  0.4507039651864479  0.9487606625927011  0.3614055549433538
  0.4404541121672170  0.7766577575932005  0.5575105550259337
  0.4208391833966993  0.6828239115443493  0.7412320143385210
  0.9190089423198581  0.1830976711294877  0.7425570972521786
  0.5920694350993245  0.6612446861388599  0.2642738319616083
  0.0856335582572657  0.1778389730312683  0.2594822690741942
  0.5825933686954857  0.3098793880491276  0.2488145111921412
  0.0821645605556572  0.8178046668936195  0.2563815307699865
  0.4168608829905560  0.3249489036299941  0.7351076577080462
  0.9184541140023031  0.8238669415826169  0.7354408604480084
  0.5081850353258450  0.6462655999068614  0.8494820557197398
  0.0076901107359308  0.1471980603324825  0.8468283444597596
  0.5010212935115972  0.6459442898296722  0.1640863340124970
  0.9965591574896099  0.1433560190700477  0.1550576090418654
  0.4957523533628155  0.3426804151464066  0.1425321589883078
  0.9948363031218107  0.8546120422740607  0.1458628983934191
  0.5061866863043263  0.3548076665309338  0.8389849066684854
  0.0069764730681739  0.8577432671301107  0.8458430417858794
  0.4481025375861706  0.5028283999120722  0.7864519856584249
  0.9469926804162511  0.0027547968241444  0.7865030023326665
  0.5554982808632932  0.4907247940953677  0.2049479264479518
  0.0559616945657415  0.9983282993108203  0.2104014413336509
  0.4384603170859107  0.6194285957936261  0.9494961160070047
  0.9402135084871153  0.1190129883293275  0.9498903203927548
  0.5670125203512673  0.6133992088989142  0.0522793789936507
  0.0634747338970887  0.1171491038041415  0.0505458575626525
  0.5646852004770333  0.3749937994788303  0.0425462346257041
  0.0644274840054471  0.8819288124302378  0.0484553820359735
  0.4391567288342096  0.3818815168748120  0.9451564678930798
  0.9372281189491380  0.8830959423783263  0.9439755503174672
  0.4021277561826065  0.6841143837419954  0.1268416306524810
  0.9071499629505094  0.1814747295990548  0.1145484499922320
  0.5976259918083321  0.6808410405047709  0.8854425674963728
  0.0975342078385146  0.1852923596085631  0.8893374656343999
  0.5967643063450223  0.3196029663034301  0.8734836134424540
  0.0975524573878721  0.8219322775098733  0.8818209346188418
  0.4065366293686485  0.3057576290372400  0.1036372349714525
  0.9046847138246302  0.8175726732714587  0.1091416368179966
  0.4357280599428266  0.4897794680807568  0.1217626152599414
  0.9339127583823126  0.9992838191337532  0.1102099493015536
  0.5683796849790443  0.4995102949205500  0.8831397379796383
  0.0687365500988984  0.0023469146031037  0.8857314701480921
  0.2212296142553463  0.0048636516128110  0.8275246764085917
  0.7206386729665456  0.5089433380269767  0.8200569573842805
  0.7837085873441262  0.0028193393087698  0.1718565225969986
  0.2812675576574705  0.4880124792906689  0.1770343285057598
  0.3008757791159029  0.9113452814524612  0.8454152530686024
  0.7991854726388832  0.4101232157115352  0.8478044287142722
  0.7045344846538074  0.9065304451078638  0.1578884555187197
  0.1999864551809998  0.4002275358999637  0.1734261797157278
  0.7025629246833415  0.0925365807381916  0.1493160110856558
  0.2025292085849213  0.5869873279573958  0.1522991615406390
  0.3010030055770469  0.0979242465154706  0.8301082143251290
  0.8022303890084724  0.5961284773998016  0.8257890166732972
  0.2562271276564127  0.9964655284504480  0.6538606339990242
  0.7581746842363450  0.4912357609846190  0.6519876624557706
  0.7451371945156040  0.0065108199197499  0.3404500788289702
  0.2449021234177371  0.5048268041578393  0.3469753574762441
  0.1932374808781662  0.4049015146658636  0.7771342658317635
  0.6939238236296931  0.9030008236088892  0.7839866683012747
  0.8105252962715246  0.4013068586650346  0.2074469351941452
  0.3009801948056589  0.9064512879822811  0.2266468591203297
  0.8061393783903921  0.5911978957991635  0.2180078797117711
  0.3093366638754167  0.0942964706263010  0.2232151224636885
  0.2002611633506167  0.5937266163108127  0.7898602686194582
  0.6983994880131230  0.0917344563473694  0.7724122061533285
  0.2731093959064322  0.4881378226341601  0.7713386711983675
  0.7721077251494399  0.9832679041246317  0.7638327647009286
  0.7329308849715698  0.4812905833192109  0.2261681155591570
  0.2281021668695331  0.0185173291217094  0.2311469114569562
  0.2460387515026318  0.4858958737125815  0.9589555749221768
  0.7463700201769035  0.0021105488602137  0.9530329309300971
  0.7580859038864469  0.4996341152465847  0.0376238515591733
  0.2572109777970025  0.0043282694366267  0.0466444335520102
  0.2749502699125112  0.5349681387663133  0.5630272014462440
  0.7750576369698932  0.0307073137251237  0.5569893321330294
  0.7269948463051542  0.4696993941931355  0.4372923979592742
  0.2271452763204942  0.9628622502619346  0.4378320457788240
  0.3332708843546404  0.4084453294563649  0.6757200753758178
  0.8357924968507903  0.9098514766076888  0.6733723050735682
  0.6566037170795872  0.4174688248729787  0.2718142394958855
  0.1618952417597451  0.9048221146056954  0.2623471983212061
  0.6811122899386391  0.6006185359116123  0.3009912258654149
  0.1657524119309591  0.0856961237836751  0.3286944800256600
  0.3422595221763275  0.5901288596528651  0.7355584157861936
  0.8399334174113502  0.0916474860616308  0.7315637001634673
  0.2033300136599819  0.4155732827323239  0.4857910794917704
  0.7032196800044882  0.9120785748380020  0.4742702907930321
  0.8096638679786983  0.3985847558559625  0.5380006390576215
  0.3099381324158340  0.9007039605054121  0.5477106788281129
  0.7998428690924512  0.5864070602923199  0.5171949634778341
  0.2968384292858368  0.0868571504671168  0.5135693605296070
  0.1929786167317032  0.6028246151278724  0.4542305183223692
  0.6927665006546752  0.0998346601086861  0.4528144209467641
  0.3284181394011543  0.7295911871060160  0.1983258926663113
  0.8354262287453710  0.2210280809884278  0.1951184263599259
  0.6659662520358761  0.7231112974571799  0.7934132570853539
  0.1657596624885448  0.2255449003037913  0.7965750592606560
  0.6685084478061946  0.2673869925803072  0.7973699670795871
  0.1704632781857446  0.7700800939446368  0.8080119101466777
  0.3402504207250186  0.2704785439329657  0.2050844439833561
  0.8357109244003023  0.7683133359499918  0.1977221978074688
  0.2386616406395415  0.7640466013751498  0.1941680052619887
  0.7455760872637306  0.2631800016422893  0.1769941325170327
  0.7568255389142557  0.7618433338995791  0.8151488591250658
  0.2562422539829063  0.2646904660436073  0.8145469581533572
  0.7599725832311155  0.2357970112934401  0.8138648479277115
  0.2602254434382497  0.7391841101179570  0.8052595961704634
  0.2485157545301258  0.2390410388524603  0.1767474477152151
  0.7442164829617320  0.7339281665935727  0.1750079830223166
  0.3074464185351279  0.7761307476417113  0.3815355967304483
  0.8113318233590856  0.2788904636653354  0.3709773555476015
  0.6917494500309074  0.7815968445320219  0.6204934812234745
  0.1913046420710416  0.2753771211742412  0.6203576060149564
  0.6949407420418399  0.2233205385461759  0.6200613692937031
  0.1887203819398176  0.7169332100063552  0.6244336171536040
  0.3099000909779409  0.2248720009132949  0.3770060393068512
  0.8070317563921027  0.7219594139759976  0.3718086020862371
  0.3445421172440720  0.7272820283122344  0.5867051751777669
  0.8435153813346364  0.2242009824299807  0.5783943474904817
  0.6609633497643300  0.7487212581521400  0.4084977536758508
  0.1579200062632319  0.2586087742631227  0.4053613060260861
  0.6574659819251139  0.2739008486169269  0.4159847601346329
  0.1581772854576607  0.7766082875683548  0.4197064224801275
  0.3449546687695245  0.2411947032794280  0.5919167998989129
  0.8478228795742853  0.7439738171106317  0.5846971092958877
  0.2509169863561372  0.7524394479210607  0.5125120494808009
  0.7509331613189937  0.2495740513009420  0.4887116252428754
  0.7542836145849284  0.7519522413387447  0.5087130250911642
  0.2513611277574501  0.2529074476550612  0.4998838374598672
  0.3489131307891083  0.7701912048612043  0.7973977495360325
  0.8456737674274676  0.2726858151730472  0.7858966099485828
  0.6560067794110374  0.7594975545625413  0.1928365726036722
  0.1603699903438982  0.2347112736885699  0.1953027908448635
  0.6605090447471593  0.2372224037763429  0.2103724664211166
  0.1528454278000561  0.7215939543341089  0.2121610951895806
  0.3457280711418488  0.2556784481714692  0.8053878733440596
  0.8450351552498281  0.7547003548487019  0.7964327711514322
  0.3271313006387775  0.7748011730997997  0.9926074836642241
  0.8317164333059348  0.2724191804958167  0.9886018100415501
  0.6745681750633832  0.7793007692884295  0.9987946606628190
  0.1759830704241096  0.2789490385499199  0.0043356941300409
  0.6709402818195960  0.2281884463327648  0.0057138923650966
  0.1696395104016694  0.7259693544824447  0.0131058483688563
  0.3247194332714748  0.2228539941881511  0.9945164669029503
  0.8285613698420738  0.7199113203130472  0.9897645948210541
  0.3196309548358352  0.5950450811104331  0.0443487935880965
  0.8274739596547843  0.0892257379658944  0.0360410466802452
  0.6791689142986603  0.5948621992971923  0.9593678528792144
  0.1773634899225043  0.0944351985447352  0.9588731818761671
  0.6786964014774590  0.4071368691044943  0.9482942268376663
  0.1795776643455681  0.9067185149881954  0.9607319788246219
  0.3286783039685965  0.4067494282918871  0.0482988111046008
  0.8226157808674449  0.9014780106185909  0.0381256905849193
  0.4535041194600689  0.6124506588132754  0.8368747565168296
  0.9536494310565276  0.1126966618066690  0.8316754728147533
  0.5515649175360400  0.6039479598363675  0.1689026105119689
  0.0504934670046172  0.1090991550986923  0.1689378457088903
  0.5489163095308643  0.3819799693090556  0.1583796882317029
  0.0493186512392970  0.8885454499794612  0.1648432100555473
  0.4524402735083982  0.3924331130358985  0.8279941976439532
  0.9528693510500238  0.8920715104161669  0.8285162051863113
  0.9446183450556167  0.1099236924260998  0.0821657541908354
  0.5596692056118681  0.6094022382026129  0.9187821014242327
  0.0596269122186550  0.1124011077797953  0.9183504354558273
  0.5586424288716005  0.3882663814705260  0.9099162653962308
  0.0596380312110528  0.8914270032238769  0.9157950730362194
  0.4434420607315573  0.3854266481386845  0.0789144090567740
  0.9426514399742960  0.8891346606515510  0.0770952673152979
  0.2935934289649103  0.7932324134431589  0.2482812324250575
  0.8001882959273008  0.2912103577799142  0.2375681516851221
  0.7029090096212212  0.7921946015782744  0.7542473578531175
  0.2020942669825067  0.2930290638101679  0.7530132779621638
  0.7059832459363196  0.2050693412375850  0.7523581988648576
  0.2056624339712575  0.7052065096571580  0.7583415036418276
  0.3013952512374575  0.2073346156301307  0.2447022817843037
  0.7978257866466101  0.7037100667485731  0.2396244905028778
  0.3025163492651124  0.7890154102469138  0.5066712425464229
  0.8036374033333304  0.2879477301705229  0.4941501749356546
  0.7033302933722922  0.7984911812056388  0.5022914012960564
  0.2014466404930342  0.3007298289886221  0.5024365942074773
  0.6996205658802027  0.2112761008374472  0.4945892035176615
  0.1981943075756477  0.7120444352605348  0.5027489979808982
  0.3002170591984162  0.2015114515045121  0.4959934741116060
  0.8019255257588529  0.7005633901343075  0.4953648940628835
  0.3090657661358668  0.7971057258793220  0.8610589143766859
  0.8087903102353315  0.2965755397013482  0.8584095753850639
  0.6955782367473575  0.7939957348231405  0.1320476718467778
  0.1969118013010134  0.2883805244751416  0.1385572736960963
  0.6955019232506753  0.2067914023344096  0.1359989808693444
  0.1915114495395646  0.7002034375259818  0.1433436238084425
  0.3063331959001938  0.2106510163244262  0.8603803520942800
  0.8075404182593625  0.7087835261423530  0.8559228259069820
  0.3464584495068079  0.6954558256846659  0.0910080941579824
  0.8503704492603381  0.1916832443324237  0.0834198404828804
  0.6539579779988999  0.6943573127257512  0.9093527392513969
  0.1542594592925934  0.1964090840848883  0.9125362275012282
  0.6535547069975758  0.3056114681982415  0.9063433111591516
  0.1543437030523582  0.8056622443263054  0.9159074967132670
  0.3502192367797088  0.3021444601402398  0.0876284314988238
  0.8482276680470975  0.8015969719526121  0.0840227691835723
  0.3640114190147527  0.6933478510619921  0.7157136790793662
  0.8620195271257807  0.1937518644979534  0.7083922721279132
  0.6467473558784738  0.6915737610689974  0.2903364379134825
  0.1427030885099891  0.1900320319693734  0.2971210513253430
  0.6397251214428286  0.3089031608952965  0.2874126876954640
  0.1390908724431954  0.8043357210183798  0.2892003144001819
  0.3601719365913127  0.3075457846674485  0.7027452713087570
  0.8617577215065548  0.8075765839726924  0.6976918218548530
  0.2700939346651743  0.0022557429393283  0.7891766214175611
  0.7703949012137886  0.5015860064301575  0.7862432391147679
  0.7338359692598897  0.0021528876844428  0.2056591060601606
  0.2319778027156968  0.4953062459323946  0.2122864720602577
  0.2283826912581575  0.4943034428954991  0.8244212618361395
  0.7770277386990471  0.4942361434501950  0.1723500167765424
  0.2736793977331244  0.0046677470457729  0.1819087069770351
  0.7280072485607381  0.9958771351505851  0.8182876545809992
  0.3055749662398598  0.5052133162160440  0.6867890111002912
  0.6995424438342457  0.4925174469997481  0.3091918005253462
  0.1960350883316499  0.9932335638316122  0.3148715919482701
  0.8054814877926170  0.0033318444334884  0.6815917658280545
  0.2287387371676743  0.5132239700781839  0.4614181111942249
  0.7742133804920961  0.4877204408984530  0.5371569728211844
  0.2727380246989034  0.9881866287814803  0.5397982015717974
  0.7288211579206023  0.0111837304318746  0.4549497573085106
  0.2947047741460081  0.4949941470338104  0.0580843039575454
  0.7087936524356361  0.5023255141818866  0.9406094394605536
  0.2086243099524656  0.0022586565049967  0.9472290715534772
  0.7954118541192482  0.9988488797387907  0.0510215800216344

             NaN             NaN             NaN
             NaN             NaN             NaN
             NaN             NaN             NaN
             NaN             NaN             NaN
             NaN             NaN             NaN
             NaN             NaN             NaN
             NaN             NaN             NaN
             NaN             NaN             NaN
             NaN             NaN             NaN
             NaN             NaN             NaN
             NaN             NaN             NaN
             NaN             NaN             NaN
             NaN             NaN             NaN
             NaN             NaN             NaN
             NaN             NaN             NaN
             NaN             NaN             NaN
             NaN             NaN             NaN
             NaN             NaN             NaN
             NaN             NaN             NaN
             NaN             NaN             NaN
             NaN             NaN             NaN
             NaN             NaN             NaN
             NaN             NaN             NaN
             NaN             NaN             NaN
             NaN             NaN             NaN
             NaN             NaN             NaN
             NaN             NaN             NaN
             NaN             NaN             NaN
             NaN             NaN             NaN
             NaN             NaN             NaN
             NaN             NaN             NaN
             NaN             NaN             NaN
             NaN             NaN             NaN
             NaN             NaN             NaN
             NaN             NaN             NaN
             NaN             NaN             NaN
             NaN             NaN             NaN
             NaN             NaN             NaN
             NaN             NaN             NaN
             NaN             NaN             NaN
             NaN             NaN             NaN
             NaN             NaN             NaN
             NaN             NaN             NaN
             NaN             NaN             NaN
             NaN             NaN             NaN
             NaN             NaN             NaN
             NaN             NaN             NaN
             NaN             NaN             NaN
             NaN             NaN             NaN
             NaN             NaN             NaN
             NaN             NaN             NaN
             NaN             NaN             NaN
             NaN             NaN             NaN
             NaN             NaN             NaN
             NaN             NaN             NaN
             NaN             NaN             NaN
             NaN             NaN             NaN
             NaN             NaN             NaN
             NaN             NaN             NaN
             NaN             NaN             NaN
             NaN             NaN             NaN
             NaN             NaN             NaN
             NaN             NaN             NaN
             NaN             NaN             NaN
             NaN             NaN             NaN
             NaN             NaN             NaN
             NaN             NaN             NaN
             NaN             NaN             NaN
             NaN             NaN             NaN
             NaN             NaN             NaN
             NaN             NaN             NaN
             NaN             NaN             NaN
             NaN             NaN             NaN
             NaN             NaN             NaN
             NaN             NaN             NaN
             NaN             NaN             NaN
             NaN             NaN             NaN
             NaN             NaN             NaN
             NaN             NaN             NaN
             NaN             NaN             NaN
             NaN             NaN             NaN
             NaN             NaN             NaN
             NaN             NaN             NaN
             NaN             NaN             NaN
             NaN             NaN             NaN
             NaN             NaN             NaN
             NaN             NaN             NaN
             NaN             NaN             NaN
             NaN             NaN             NaN
             NaN             NaN             NaN
             NaN             NaN             NaN
             NaN             NaN             NaN
             NaN             NaN             NaN
             NaN             NaN             NaN
             NaN             NaN             NaN
             NaN             NaN             NaN
             NaN             NaN             NaN
             NaN             NaN             NaN
             NaN             NaN             NaN
             NaN             NaN             NaN
             NaN             NaN             NaN
             NaN             NaN             NaN
             NaN             NaN             NaN
             NaN             NaN             NaN
             NaN             NaN             NaN
             NaN             NaN             NaN
             NaN             NaN             NaN
             NaN             NaN             NaN
             NaN             NaN             NaN
             NaN             NaN             NaN
             NaN             NaN             NaN
             NaN             NaN             NaN
             NaN             NaN             NaN
             NaN             NaN             NaN
             NaN             NaN             NaN
             NaN             NaN             NaN
             NaN             NaN             NaN
             NaN             NaN             NaN
             NaN             NaN             NaN
             NaN             NaN             NaN
             NaN             NaN             NaN
             NaN             NaN             NaN
             NaN             NaN             NaN
             NaN             NaN             NaN
             NaN             NaN             NaN
             NaN             NaN             NaN
             NaN             NaN             NaN
             NaN             NaN             NaN
             NaN             NaN             NaN
             NaN             NaN             NaN
             NaN             NaN             NaN
             NaN             NaN             NaN
             NaN             NaN             NaN
             NaN             NaN             NaN
             NaN             NaN             NaN
             NaN             NaN             NaN
             NaN             NaN             NaN
             NaN             NaN             NaN
             NaN             NaN             NaN
             NaN             NaN             NaN
             NaN             NaN             NaN
             NaN             NaN             NaN
             NaN             NaN             NaN
             NaN             NaN             NaN
             NaN             NaN             NaN
             NaN             NaN             NaN
             NaN             NaN             NaN
             NaN             NaN             NaN
             NaN             NaN             NaN
             NaN             NaN             NaN
             NaN             NaN             NaN
             NaN             NaN             NaN
             NaN             NaN             NaN
             NaN             NaN             NaN
             NaN             NaN             NaN
             NaN             NaN             NaN
             NaN             NaN             NaN
             NaN             NaN             NaN
             NaN             NaN             NaN
             NaN             NaN             NaN
             NaN             NaN             NaN
             NaN             NaN             NaN
             NaN             NaN             NaN
             NaN             NaN             NaN
             NaN             NaN             NaN
             NaN             NaN             NaN
             NaN             NaN             NaN
             NaN             NaN             NaN
             NaN             NaN             NaN
             NaN             NaN             NaN
             NaN             NaN             NaN
             NaN             NaN             NaN
             NaN             NaN             NaN
             NaN             NaN             NaN
             NaN             NaN             NaN
             NaN             NaN             NaN
             NaN             NaN             NaN
             NaN             NaN             NaN
             NaN             NaN             NaN
             NaN             NaN             NaN
             NaN             NaN             NaN
             NaN             NaN             NaN
             NaN             NaN             NaN
             NaN             NaN             NaN
             NaN             NaN             NaN
             NaN             NaN             NaN
             NaN             NaN             NaN
             NaN             NaN             NaN
             NaN             NaN             NaN
             NaN             NaN             NaN
             NaN             NaN             NaN
             NaN             NaN             NaN
             NaN             NaN             NaN
             NaN             NaN             NaN
             NaN             NaN             NaN
             NaN             NaN             NaN
             NaN             NaN             NaN
             NaN             NaN             NaN
             NaN             NaN             NaN
             NaN             NaN             NaN
             NaN             NaN             NaN
             NaN             NaN             NaN
             NaN             NaN             NaN
             NaN             NaN             NaN
             NaN             NaN             NaN
             NaN             NaN             NaN
             NaN             NaN             NaN
             NaN             NaN             NaN
             NaN             NaN             NaN
             NaN             NaN             NaN
             NaN             NaN             NaN
             NaN             NaN             NaN
             NaN             NaN             NaN
             NaN             NaN             NaN
             NaN             NaN             NaN
             NaN             NaN             NaN
             NaN             NaN             NaN
             NaN             NaN             NaN
             NaN             NaN             NaN
             NaN             NaN             NaN
             NaN             NaN             NaN
             NaN             NaN             NaN
             NaN             NaN             NaN
             NaN             NaN             NaN
             NaN             NaN             NaN
             NaN             NaN             NaN
             NaN             NaN             NaN
             NaN             NaN             NaN
             NaN             NaN             NaN
             NaN             NaN             NaN
             NaN             NaN             NaN
             NaN             NaN             NaN
             NaN             NaN             NaN
             NaN             NaN             NaN
             NaN             NaN             NaN
             NaN             NaN             NaN
             NaN             NaN             NaN
             NaN             NaN             NaN
             NaN             NaN             NaN
             NaN             NaN             NaN
             NaN             NaN             NaN
             NaN             NaN             NaN
             NaN             NaN             NaN
             NaN             NaN             NaN
             NaN             NaN             NaN
             NaN             NaN             NaN
             NaN             NaN             NaN
             NaN             NaN             NaN
             NaN             NaN             NaN
             NaN             NaN             NaN
             NaN             NaN             NaN
             NaN             NaN             NaN
             NaN             NaN             NaN
             NaN             NaN             NaN
             NaN             NaN             NaN
             NaN             NaN             NaN
             NaN             NaN             NaN
             NaN             NaN             NaN
             NaN             NaN             NaN
             NaN             NaN             NaN
             NaN             NaN             NaN
             NaN             NaN             NaN
             NaN             NaN             NaN
