POSCAR file created from dimer generator script with atoms sorted 
1.0
29.4686241149902344 -0.0699228197336197 -0.0508829317986965
-0.0335787981748581 13.9991369247436523 -0.0137711204588413
-3.2760660648345947 -0.0040951701812446 12.0236673355102539
Al C H O Si
1 18 26 154 75
Cartesian
12.8318293698990082 8.4495015177396144 1.0439153861684045
15.6820625832297971 11.4828041156049938 6.0644319764651691
15.0089167794143741 10.5048525060988069 7.0175267795006855
14.9981456855129807 8.4375260622206572 5.8728505570427654
14.1603231340476317 7.5450795809695919 5.0462396512955632
14.0387146458843972 6.2370612421025875 5.1019656181378110
13.5007052415067861 5.1869119334684779 4.4671239701034873
12.0392210598070140 4.8288972800725993 4.5361797300257978
11.1668444543449628 5.9948322493883426 4.0377628278981694
11.2003857749225784 7.2129695701699523 4.9743202620625038
11.8879535335473747 8.4569060542256125 4.4066785451189414
13.3433498636793821 8.2452446372298667 3.9706281906971190
14.5762136381130425 3.4579166392298863 5.7811709653090553
13.9417594279051222 2.1854077842156840 5.3319919644512455
15.8360829500090823 3.8970152219917922 5.4785765700571352
16.1203160134323085 5.0759860088755584 6.2046723125202785
15.0334421163219858 5.4067322840301086 6.9753166978056393
14.9588619978786319 6.4188484297205521 8.0691770828815574
14.1116718409289028 4.2199970407993384 6.9856486519802621
14.9450800811325415 11.9302697030051945 5.4012817176619974
16.1731190441738057 12.2682941596840163 6.6318383201384750
16.4263028835903064 10.9617942651488569 5.4667984231363853
15.7588578787729645 10.0258988110760772 7.6563316420161129
14.2616956205905261 11.0079721089034113 7.6355476643389553
14.0601699429838831 4.7338092602215092 3.6630458531713952
11.7186272234104578 4.5855407544608244 5.5513691040391695
11.8525476623138584 3.9558452988507442 3.9086179436607127
10.1406556311737681 5.6291153006675474 3.9510335564058758
11.4910777538722879 6.2829271816292467 3.0371066989477766
10.1776408120186161 7.4984382186942851 5.2322540247820593
11.6988614828082635 6.9357685819137629 5.9039213813409583
11.3239878877608824 8.8222082855433435 3.5447042700073519
11.8646254418046233 9.2324780806828866 5.1752487608084783
13.7851801672295569 9.2150277097840085 3.7364526151836661
13.3690886573402654 7.6294038380501830 3.0698634101512736
14.2579323382998489 1.3614422443463909 5.9752221558903766
12.8570949568952066 2.2459779539532372 5.3816858683838378
14.2385318535869985 1.9453630059886480 4.3134058589113806
16.4805783128774408 3.4754843954687566 4.7269729003033865
16.9983114946011753 5.6827735339846992 6.0828040216244412
14.0663412674949413 7.0381995726748761 7.9815064796354056
14.9116042912841280 5.9085244180251761 9.0328530524935680
15.8362808304994793 7.0577745278744555 8.0613934773575711
14.3418997467143328 3.6252602040321880 7.8768970957267763
13.0526612156492074 4.4574061672000980 7.0292700289461694
10.1133147485616703 9.5258067177015597 8.8960245149540871
24.8097170490790049 2.4543468417597882 8.8811318832800215
16.5923627877885487 9.2907131353800487 3.1636027624877321
1.7918815630376348 2.4997398433046443 3.1346104802394361
16.4841554466098437 4.3171043283683899 3.0089868858016655
1.7185314342047648 11.4571357182662830 3.1002598537115107
10.0492064924045614 4.4847651377938824 8.8665509146840904
24.7956165302090845 11.4026778591668911 8.7943635481913081
12.3062426267619340 8.9854638526877366 10.2376140753194260
-2.4044512018991262 2.0638114168860731 10.2295253286941943
14.2730613462084222 8.9823242739291533 1.9064480903936263
-0.4981969816236437 2.0094246198987995 1.8918587405373750
14.2815975524352421 4.7553544047371581 1.6737008636175172
28.9827499742304191 11.8239039409853888 1.6829888879555797
12.3376580209541356 4.9832394548220451 10.1313363299772323
-2.3984024553654999 12.0360832840862191 10.1767219198478234
10.7886973122722356 6.9950972466447841 9.3683814527656377
25.4656664917655355 -0.0816634699547836 9.4062415599471780
15.8051359118776276 6.8417253963104798 2.4758161070869824
1.0833709126589932 13.9830705072593950 2.5364648289847125
9.9166579840778351 8.5383737577277827 11.3674378311765789
24.7134850527278367 1.5513342462353308 11.3650144601573597
16.6327091900623927 8.5585385735444266 0.6508662745070247
1.8241083433155114 1.6391512923916658 0.6361716427143669
16.6597126120706633 5.2204658142955784 0.5362008106610187
1.8712281041252417 12.3480225322922230 0.5910416270012933
9.9928571497626457 5.3569164030371956 11.3487334133009856
24.7066059116289729 12.2450000416134746 11.2856219092912013
11.4648583760085252 9.4730214457716642 1.3734439875610485
26.4411527106112416 2.3731958183447248 1.3338932020561700
14.7994025500311110 9.5536127937036444 10.6808005833131947
0.1049647991825662 2.6072449120760788 10.7228368171515065
14.9138615807809529 4.4915371242443625 10.5201500281961415
0.1458225599801763 11.5100556366524351 10.6194669378560462
11.7755013847278605 4.1980581849673850 1.1805131956498427
26.4705183978850265 11.2836593832302565 1.2289372352912713
12.5213948028665172 6.7754756879073694 1.4673059532706816
27.2855134044878973 13.8450437557023296 1.2443712643390672
14.0378675956963122 6.9927933875955102 10.6533527807168884
-0.7075983964512051 0.0444134305486297 10.6955995745359154
3.9468398831689249 0.0636077199889922 9.9208766040847678
18.7675285349360479 7.1116002264673694 9.8009296956558316
22.6290870135936046 -0.1202160731702960 2.0273122225936024
7.8013577889409031 6.7494739340869900 2.0649423694713835
6.2333621614838322 12.7457145200340669 10.0885824223122942
21.0560908359356738 5.8133366610967228 10.1597009931271351
20.2691390777165097 12.6181578481922756 1.9072264115814990
5.3999950740586922 5.5661780718258065 2.0664606869115638
20.3686047440580928 1.2190595220451821 1.7344339575689711
5.5819517467967232 8.1818678142158383 1.8313269953875604
6.2904990788554720 1.3531245574777671 9.9509414245552748
21.1136887524741006 8.4045440077999860 9.7952334156382843
5.5417298945463340 13.9548944896102576 7.7955601954213032
20.3896262706623972 6.8506393816746911 7.7677668878866859
20.9637214582506317 0.0398501212726483 4.0736675291653937
6.2215653256269841 6.9845649134568495 4.1462365911402594
3.2828069232776462 5.6425220081911043 9.2386776277169815
18.0386955014088031 12.6835928658478068 9.2616368013414636
23.2048416757579758 5.6221918193229845 2.4626547501146714
8.2224934644530645 12.6480483896461919 2.6693064489314398
23.2155995536407147 8.2742374574025455 2.5796805980342179
8.5028929879904211 1.2846068418825272 2.6632474181437136
3.4722928844002370 8.2840810000773946 9.5070757406390687
18.4129950352559284 1.2957981816494351 9.3174982386720178
5.6631170920151490 6.7889250774488401 9.2263794197938296
20.4997598784116590 13.6104147616501390 9.1422280593799066
20.9177546207943443 6.9535105409820774 2.6169173217345985
6.0758646445635858 0.2521065382806690 2.7184377227193730
4.2289742548517797 6.6547445997329921 11.4699309687113065
19.0417524087388301 13.8322033159875755 11.3961246107522900
22.3527592479302939 7.0542541175949323 0.3946155922929191
7.5720005567049702 0.0429979982524675 0.5267276099296083
6.4489542619230065 7.4305350125377254 6.7334180713225900
21.1594609710504784 0.4162653075598491 6.6798057946800888
20.1979201829446957 6.4489829394682667 5.1696501222296130
5.4401297403228037 13.4981514316165914 5.2007241973999472
7.8172473914230167 5.7166259994524777 8.1546381986624645
22.7146424501500661 12.7803542759917619 7.9472971655238904
18.6855694625418280 5.7241952678548653 3.1564215670268205
4.0629128560255907 12.6325535288718029 3.1339228684708931
18.9895090328205285 8.2914457241659996 3.7701285211897182
3.9161891550201404 1.1668339975079844 3.9304075543537826
7.7957812467325489 8.2601600152902748 8.8334777913841656
22.4466532137798467 1.2989844642636614 8.7922470549178744
4.5542858762428269 5.7837821542271062 5.8644092374032253
19.2996283123601842 12.7596388143178086 5.7114204890216937
22.2898910708895777 5.5349591910202909 6.4460215573622603
7.4784308769802585 12.5799280197147194 6.5504633182867824
22.0089146900582264 8.1625864584372767 6.0882058086993087
7.2567586804396740 1.1962876079949940 6.1874708218976462
4.3778493299819310 8.3999827340561311 5.4405830437158489
19.0915791804188437 1.3925130353259778 5.4291785235747865
9.0816832973233339 10.1476421547703133 2.2941201302487930
24.0942793111680587 3.1364627380205312 2.2628075737570068
17.0404618948310187 10.2268761677893121 9.4777147500607466
2.4098438067588495 3.1389365480347640 9.5610804138577201
17.2593619783513326 3.6694972952225049 9.5929774920217561
2.5122037758207481 10.7429231130714289 9.6877950552604055
9.4895745051983127 3.7432508843344419 2.4317832519345211
24.1146636335423388 10.7612313194285587 2.3191663641019189
6.4715362229817410 10.6690320995114121 2.3555106833806074
21.4581280923461968 3.6295682908160392 2.1991980941817584
19.6567475187889045 10.6359812488861465 9.8097436410437187
5.0215014302320657 3.6883112866917989 9.7504250597296718
19.9295290784354826 3.4299814977141097 9.7587633097995443
5.1760605076508961 10.3433120040094320 9.5772055663434994
6.8684132969100276 3.3365241647096231 2.1479285224737232
21.4992610905938264 10.2506669954650835 2.0765018147155501
7.9477422747363917 10.8312965849141847 4.5527359257057922
22.8880907699175928 3.8739224483893073 4.4343290529663237
18.4946151733035826 10.8638640730193394 7.4075901400375201
3.7389409103689508 3.7704809238045058 7.4182487127869958
18.6481950442662665 3.1286509405440399 7.4483618530889109
3.6260679483889717 9.9658049626809522 7.4690118567427364
8.0721852580949882 3.1146689248119217 4.5253430299621824
22.7356541969083352 10.1152530978421940 4.4312375776123378
8.3670873762013471 10.1494925656254011 7.0272478327140835
23.1509822623801682 3.0782678561989796 6.9092200008230291
18.2124315075756904 10.5341784303458379 4.8468604503879487
3.5064954965611292 3.6182442418033203 4.8249588334377860
18.1922613818812700 3.8311413527240243 4.9892032217539501
3.4435529405138592 10.8325937175507914 5.0209194008294702
8.3894326489446716 3.3814131388587199 7.1033116429895626
23.1357791337488337 10.3430933908170957 7.0151041581324662
5.8552357777383932 10.5120863055469691 6.1518792244114513
20.7159214570672532 3.4575513509541755 5.8497142173783168
20.6622487786372773 10.4779014842989753 5.9966651334426766
5.9321714343779899 3.5047026541331365 5.9961092063137054
7.8233276850550499 10.7695808395281905 9.5677689082014545
22.5641992821040205 3.8402686787832865 9.3814786476471212
18.8274129868897155 10.4515769041406248 2.2741831093377618
4.2046300327533235 3.2253269152156396 2.2930226678849226
18.8385077182031857 3.1660911753464123 2.5119614501594500
3.8986630408097698 10.0721002855636623 2.5035977741589863
7.6945911685699713 3.5481526614145209 9.6675008340910473
22.3200089619695916 10.7171742783842294 9.5232749903205391
6.4420602010961190 10.8309973652309086 11.8640713454674351
21.5218002221034617 3.8259050233031364 11.8300929993962889
19.9987621545081780 10.8695957513043311 -0.0357086700491739
5.3364529091315802 3.8692495934699895 0.0317393129413788
19.9094753908810560 3.1870451551682590 0.0791876645093144
5.1076313606341639 10.1228849022157590 0.1357802025854560
6.4268835767154506 3.1049828444893799 11.9279658918498797
21.2606031765905072 10.0854129612156918 11.8408158852232557
9.2701490524022283 8.2873895364686554 0.4147754374300728
24.2310132925574102 1.2827852247328293 0.3731130878392122
17.0153054566423307 8.3220154243408562 11.3841864050133506
2.2242568550291053 1.2957947896472453 11.5111908919210251
17.1266131648855406 5.6821165882428257 11.3505926799141310
2.3309890328998497 12.6644739823278982 11.5208421990623702
9.6788603439677701 5.6624719376793200 0.5559447836080351
24.3942930556937299 12.6468036675090012 0.4381296074750868
14.2924125323882834 9.4980658362517936 6.3094308943897683
16.1782020410188601 8.2971604558268162 6.0804216066210381
22.2504513456732163 3.9897695671444646 5.9121254850755891
5.3963362219214570 7.1329635804506308 5.5347092885936835
10.7437804564640373 8.5075521299929395 10.0219600935021553
25.5207353138964983 1.4543279282394310 9.9535379621640701
15.7552017339011101 8.4261573897223201 2.0348014499562019
1.0516967602457084 1.5327511823278348 2.0583754604027411
15.7778952708595774 5.3175432030967364 1.9155892900928859
1.0542730271705758 12.4451157454323216 1.9970070458849609
10.7772432654315846 5.4793371368401882 9.9480208872674876
25.5268212353789856 12.3677431937396722 9.8879817688905014
27.6743366916531173 1.3964662206648897 0.9293924180743363
13.6057308929021481 8.5138804393793279 11.0827418881183881
-1.0976334347288128 1.5843780080715433 11.0804655274821862
13.6591245586857077 5.4393612440283272 10.9748026831898216
-1.0781612875140554 12.4922225828464057 11.0273722845480258
12.9290133648088901 5.3343214476642453 0.9297160968914655
27.6768167132721743 12.3062272370453023 0.8522925852028946
7.9366627627914070 11.0664870062998286 2.9495327364522939
22.8984813060193240 4.0664629137331936 2.8310680157794494
18.3245656885023003 11.0898968589089897 8.9951122832749899
3.6222868108417527 4.0637604419618079 9.0061142500359264
18.5759074310247030 2.8930981045212105 9.0452933893876004
3.7137829597981682 9.8352811617244029 9.0804447162085040
8.2194006970853941 2.8702257815720498 2.9308114357814774
22.8817812008581924 9.8471854341177991 2.8428391575715795
7.3978487165485376 11.0172504236327633 6.0606024148083035
19.1858889346381574 11.1548231292150195 5.9760133976775496
4.4483324681216754 4.1710276245846387 6.0218559807935348
19.1783911980173869 2.9511652059578930 5.9300744785303703
4.3460920503184743 9.9265082990699582 6.0235949637001989
7.3952942440930354 2.7996331635895850 5.9581067194910400
22.1230456314544810 9.7702923606888312 5.8862143345803553
6.4118871673918658 11.1466912627114283 10.2807964650318393
21.2634700023152767 4.2124015294712676 10.2772950834050469
20.1642065073659928 11.0329927542304347 1.5741275918068636
5.4725780355769471 4.0016371658746728 1.6481863425536758
20.1589382684586731 2.8252531390304245 1.6391911227637694
5.2845229467190737 9.7660952772099439 1.7087783445943776
6.3428033294237096 2.9290764019853834 10.3172456446718250
21.0793991060238426 9.9636957766752836 10.2305438453611171
9.9366792051069055 9.6704676413781723 0.9835197264525939
24.8946171342535543 2.6564726435052788 0.9394383898764808
16.3923869380643765 9.7363634739767040 10.8873338201511380
1.7096256828115286 2.7364718574163374 10.9663602780733136
16.4807594550995056 4.2676265554815931 10.8924687524310695
1.7134601938899854 11.2577085724242671 10.9983246171772766
10.1636980071124459 4.1814524483502531 1.0165700253975498
24.8761774442920611 11.1805911340033628 0.9498232702606215
8.5247551122830565 9.6894264121463056 8.5782108224055822
23.2530031617719786 2.6785208110273913 8.4795332690115988
18.1328194233019282 9.6332127283040112 3.4966070182069271
3.3653829648425049 2.6391725710394427 3.5471216754481611
18.0485820505936800 4.2557097010308045 3.4257314802795298
3.2921876558736551 11.2360718932719141 3.4599681591036480
8.4806023026920752 4.2794545396117289 8.4535669633422277
23.2428970666207952 11.2942179071773410 8.3228348489998822
5.5100730798070163 0.0247815698995253 9.4488736196433081
20.3422857535012511 7.0419667742274603 9.3794849436257390
21.0542128370221313 -0.0617070001183182 2.4546366878534571
6.2459821285506738 6.8770013828298326 2.5256993248844020
4.1669093902810994 6.8616352084425873 9.8600753021615262
22.4235339302178112 6.9728812889668506 2.0170376354577346
7.5921646168395149 0.0383149085169836 2.1539734280831486
19.0262103975568131 13.8772212037664282 9.7741787066727532
6.9184212104078355 7.0488581835928912 8.2401680423968742
19.7028963370673793 6.8591904593786017 3.6793712967666008
4.8854448448153622 13.8894169120517219 3.7302587532937577
21.7032826820639180 0.0182053099931602 8.1534700690350874
21.2296012691530009 6.7712452249389417 6.3803717248360021
6.4326323706384443 13.8252087375068093 6.4421816342986595
20.1259499168590992 0.1311274718250718 5.4643544323942779
8.5799160885812338 6.8481243772188520 0.6318652937175551
17.9902667416972619 7.0427918879933742 11.2326613033439813
3.2038535289811692 0.0158173128881457 11.3707265128302168
23.4010993123181521 -0.0873827035204431 0.5895994290551051
