POSCAR file created from dimer generator script with atoms sorted 
1.0
29.4686241149902344 -0.0699228197336197 -0.0508829317986965
-0.0335787981748581 13.9991369247436523 -0.0137711204588413
-3.2760660648345947 -0.0040951701812446 12.0236673355102539
Al C H O Si
3 20 29 152 73
Cartesian
12.8318281753057626 8.4495015257913746 1.0439101053028423
22.2504562265377785 3.9897687197395260 5.9121269101306773
5.3963327049848040 7.1329652576132467 5.5347092930177570
15.7694716073748680 12.8054905385162954 3.8877974309796226
14.4489340844895313 13.2649163721596519 4.5248215014218722
14.0818365471754685 12.5639678920589581 5.8179433416410422
14.1119888353459046 13.2206259131394663 7.0569848298038460
14.7105838636196005 0.6286247858075723 7.2463679630843609
16.1957549246923520 0.6945862279018987 6.8621595765216536
14.4599357722327611 1.0496499003505861 8.6670734018681994
15.1785109342477078 0.3121037922720942 9.6779445614769593
14.8395979743835547 0.4618205137784917 11.0553917770791994
13.7168722176933997 1.1975607437425684 11.3933092645743255
12.9866396131358837 1.8514140948773625 10.3887794430414910
13.3418887696315487 1.8042708068414313 9.0247871083160192
12.4930820259469257 2.4979388996989669 7.9915513507448646
11.3946853859348636 1.6055921633065802 7.3953753314839634
13.5820503933740913 12.5598560555723449 8.2099789407080248
13.2452017457281883 11.1947891497731540 8.1644187043111849
13.3130263822190695 10.5271741615703363 6.9605347077156416
13.6134350465264315 11.2222515967370491 5.7738364152106296
13.2250673284764932 10.5680503627896183 4.4883537338354671
11.7414665081750549 10.9127698251808773 4.2427756229019167
16.6223206276816562 12.9522006949966482 4.5616911322532800
15.9634097783818838 13.3715709341241507 2.9656083897971350
15.7393792370497287 11.7403792143190238 3.6301275931733872
14.4741296882624475 0.3520778741514967 4.7098393188875987
13.6347789164653115 13.0938580792431978 3.8044747392966043
14.1594090683362737 1.3056312797066134 6.5782947072075348
16.6021937697706505 1.6651394935641624 7.1668151960379456
16.3350091326739530 0.6036916858003442 5.7826783947888636
16.7846332672275729 13.9032868725591516 7.3132760986855940
16.1783784659277465 13.9444453404442541 9.4092395363009746
15.4489394338830301 13.9734239931843849 11.7886729009927382
16.6663216936995759 1.2843016474107245 0.4056651986299100
12.1032000459093005 2.4266750799249026 10.6698739798884468
12.0259981556416164 3.3689301054651897 8.4542768659520959
13.1346069806003758 2.8891838306264224 7.1881838483944014
10.7964016478973495 2.1794068346550990 6.6770358797425873
10.7147362819898468 1.2447773905289690 8.1798896254690927
11.8041475142809613 0.7280510010547068 6.8781423108469442
14.5818617702272597 13.2081631933444665 9.2468936557549579
13.0188682884022562 13.1361165817791221 8.9549152750886414
12.8420992708622865 10.7040028883095992 9.0457426567779873
13.0013311887993268 9.4836055819275824 6.8958140586197985
13.3398377355214208 9.4784985084235576 4.5615711304901261
13.8282767061674967 10.8861036223982470 3.6333782828861581
11.1101261610653292 10.5323572397660854 5.0570803724849753
11.5922833786312385 12.0012190684986102 4.1867591256054855
11.4164649283257713 10.4670327572232331 3.3002191674277204
23.0861636839879587 5.5873608183369408 7.1101790049858957
3.5963952843856832 8.1418929246626259 4.7998688005402386
10.1133124122928919 9.5258042178962619 8.8960266704486770
24.8097174431678660 2.4543449584528609 8.8811368987589603
16.5923629850587595 9.2907123012105561 3.1636020466421364
1.7918757603884634 2.4997383965039344 3.1346108498658780
16.4841558371473482 4.3171043288565736 3.0089854524688238
1.7185199189621363 11.4571365891948496 3.1002505604900943
10.0492049242013586 4.4847680626532416 8.8665501981776487
24.7956091198084394 11.4026753721088614 8.7943649961180537
12.3062431996075681 8.9854688535369629 10.2376183673601577
-2.4044484084517492 2.0638059823558526 10.2295296272041334
14.2730616331071953 8.9823267775360449 1.9064470129315274
-0.4981960900067005 2.0094242018167536 1.8918574858337833
14.2815953615684919 4.7553527458930578 1.6736960338265436
28.9827513900265075 11.8239030956123727 1.6829965868747032
12.3376580300094751 4.9832352763895829 10.1313427810462677
-2.3984023651633501 12.0360857779021995 10.1767312294995289
10.7887000461324156 6.9950964029193887 9.3683843141864234
25.4656719611707132 -0.0816658598123257 9.4062472834797184
15.8051348866678687 6.8417258186003336 2.4758134222103529
1.0833612400824830 13.9830755366633781 2.5364648407405013
9.9166599248542830 8.5383779195075196 11.3674435543381147
24.7134928779824037 1.5513261929455098 11.3650180362255906
16.6327086612747124 8.5585402417156011 0.6508681989063850
1.8241102656691039 1.6391484754586934 0.6361678366778561
16.6597086415247588 5.2204687488786563 0.5361960241800302
1.8712166712403389 12.3480242305810464 0.5910392722530364
9.9928551109246779 5.3569118143817978 11.3487377193304635
24.7066197701942727 12.2449983264713236 11.2856354972662416
11.4648598369972330 9.4730231196117849 1.3734353874387870
26.4411573857598050 2.3731895533414340 1.3338889917314036
14.7994044948104637 9.5536152866562194 10.6808063081163738
0.1049506077631275 2.6072420231961297 10.7228389935283026
14.9138629517139520 4.4915350335544950 10.5201514605481776
0.1458216111515536 11.5100648188158239 10.6194654977688003
11.7754977023618252 4.1980582026360711 1.1805041583512914
26.4705236852987227 11.2836518610048309 1.2289372335800988
12.5213946055475063 6.7754769456481991 1.4673002217409430
27.2855360861013239 13.8450462045795888 1.2443717599492463
14.0378711106315102 6.9927925448464787 10.6533527754719977
-0.7076060082832214 0.0444139156905855 10.6955952892463930
3.9468404668661794 0.0636081967520739 9.9208809005758898
18.7675328319957906 7.1115985439165721 9.8009332715310062
22.6290954597566412 -0.1202180046152346 2.0273070165159441
7.8013509582933587 6.7494743745733166 2.0649352175610645
6.2333598152077903 12.7457161922966922 10.0885845737027733
21.0561000118585468 5.8133349655545699 10.1597059932365674
20.2691397542008787 12.6181603459228011 1.9072303477514829
5.3999877998155688 5.5661801789989624 2.0664567576002764
20.3686002717441035 1.2190528602160526 1.7344311065684483
5.5819591584848762 8.1818694620868815 1.8313303835053303
6.2904976218208555 1.3531216383818134 9.9509435789438498
21.1137055391187971 8.4045422899546605 9.7952427005819462
5.5417256756800191 13.9549036724585349 7.7955659242729052
20.3896325144541493 6.8506397812342170 7.7677697420105174
20.9637270331416410 0.0398448614564324 4.0736664502293909
6.2215695235268669 6.9845640683798624 4.1462373010453542
3.2827997952481054 5.6425241139561875 9.2386747726471086
18.0386964707962996 12.6835953639444678 9.2616396625118185
23.2048514344361081 5.6221917997048170 2.4626511516182745
8.2224887768558013 12.6480500717088020 2.6693043063891091
23.2156024787667441 8.2742382827484082 2.5796827411469390
8.5028906476699273 1.2846064344757320 2.6632431246213226
3.4722916076234824 8.2840843393274106 9.5070771722050491
18.4130002966507327 1.2958015068005946 9.3174982262901498
5.6631159263581692 6.7889229963148816 9.2263772748794892
20.4997676763964414 13.6104180772453862 9.1422316242644275
20.9177580829094509 6.9535113669991881 2.6169174940146624
6.0758500142043941 0.2521041814979598 2.7184302288939848
4.2289666402246571 6.6547454437206586 11.4699395769861106
19.0417684032517123 13.8322066100119319 11.3961303104717686
22.3527566483173743 7.0542549614881436 0.3946122381639687
7.5719982765791416 0.0429975324065578 0.5267295394651845
6.4489542639244615 7.4305341781241436 6.7334180721434125
21.1594648790249984 0.4162634222820195 6.6798043571283818
20.1979247689046737 6.4489829261107738 5.1696526214635092
5.4401277600224942 13.4981430929345034 5.2007234927328279
7.8172476808480145 5.7166272482567173 8.1546403459140624
22.7146479008092754 12.7803601046277588 7.9472964340131353
18.6855670305913257 5.7241923570852746 3.1564176343001056
4.0629087482302326 12.6325577149074455 3.1339185734668340
18.9895065989173766 8.2914432242386500 3.7701310350175201
3.9161832512340520 1.1668340108089992 3.9304082808769980
7.7957799779616002 8.2601600168859601 8.8334792262334378
22.4466493172648534 1.2989819752347243 8.7922420498139768
4.5542788013201712 5.7837821692458427 5.8644110404424996
19.2996365108897372 12.7596379583333288 5.7114226246774855
22.2898977062683699 5.5349587502898707 6.4460294259390034
7.4784227716062190 12.5799305414661458 6.5504640461385986
22.0089113783975918 8.1625839637760649 6.0882051005610744
7.2567549849964319 1.1962822966997579 6.1874715498625292
4.3778435218287663 8.3999835818927782 5.4405834110850302
19.0915823143234320 1.3925082286242394 5.4291799555616391
9.0816846617271985 10.1476429877102650 2.2941183362454884
24.0942706344738760 3.1364594213268666 2.2628072338713836
17.0404681416249346 10.2268753157284671 9.4777176054158172
2.4098373191191396 3.1389361497612613 9.5610768438256848
17.2593600276164310 3.6694968819393448 9.5929782121314489
2.5121939180803636 10.7429231230207343 9.6878086825374012
9.4895715770701017 3.7432513106089580 2.4317811075905671
24.1146713398971073 10.7612321316610178 2.3191702897821136
6.4715362680340034 10.6690337699907367 2.3555088908311261
21.4581300560905319 3.6295632804109030 2.1991973794074178
19.6567512260394857 10.6359812344302380 9.8097493652765042
5.0214993793853795 3.6883117045179072 9.7504293608342110
19.9295398270648079 3.4299749998820355 9.7587690282622681
5.1760561184851692 10.3433111800151618 9.5772055747464702
6.8684130090105269 3.3365220783095286 2.1479295995254093
21.4992642189944192 10.2506644834007030 2.0765032444451399
7.9477393396030998 10.8312999316362450 4.5527337784889568
22.8880956557857758 3.8739195149504080 4.4343304800734655
18.4946190718200079 10.8638657276346962 7.4075951459622402
3.7389382746679161 3.7704813472628835 7.4182487169258717
18.6482036353347702 3.1286492506341586 7.4483625562326798
3.6260652095739738 9.9658074688689702 7.4690154406452294
8.0721804833953748 3.1146660142955094 4.5253444737500512
22.7356577934662951 10.1152589305238703 4.4312372074676514
8.3670862986962522 10.1494942362923357 7.0272485492552912
23.1509791474893767 3.0782647359716728 6.9092185766339895
18.2124309187184394 10.5341801048052730 4.8468561517806394
3.5064965701121271 3.6182438163922135 4.8249645626302744
18.1922600239577186 3.8311380197255995 4.9892017947372613
3.4435424998229602 10.8325937458614572 5.0209158372109526
8.3894350833725948 3.3814152183970010 7.1033123530546352
23.1357795202834353 10.3430950601324483 7.0151027231579794
5.8552346982318459 10.5120888106274908 6.1518799401318329
20.7159212637999559 3.4575505162965023 5.8497149348655615
20.6622575629730925 10.4779006290467649 5.9966651190992017
5.9321665525127028 3.5047039187448688 5.9961077808482051
7.8233278833747946 10.7695791645805699 9.5677746401416019
22.5642068918251368 3.8402690736869087 9.3814829320709343
18.8274156191126067 10.4515777291203520 2.2741863274501122
4.2046242811607693 3.2253246356535059 2.2930212474243494
18.8385070382162745 3.1660901378396602 2.5119575125530278
3.8986600125209643 10.0721019665187779 2.5035927634345470
7.6945916562658958 3.5481526588424761 9.6675022659074568
22.3200066046367560 10.7171809634928987 9.5232706898211568
6.4420577507053904 10.8310015374299571 11.8640770762111192
21.5218082273657174 3.8259033326609795 11.8300958525393227
19.9987605853972354 10.8695982653178671 -0.0357158226120846
5.3364484607992120 3.8692458553088174 0.0317331236063865
19.9094719524297936 3.1870399548596366 0.0791810047819932
5.1076275873094810 10.1228840758096243 0.1357811724925004
6.4268920586168283 3.1049861641212257 11.9279637249194632
21.2606043422963005 10.0854146187783087 11.8408244775129354
9.2701433283916241 8.2873912235990854 0.4147706552131775
24.2310279400570927 1.2827814436267233 0.3731044703058559
17.0153120930218371 8.3220145664036487 11.3841942740005049
2.2242461232107509 1.2957938756942211 11.5111916277080226
17.1266123818090641 5.6821174216800454 11.3505955457589902
2.3309894750675593 12.6644723060942557 11.5208486469107267
9.6788526020008412 5.6624707081943049 0.5559409927132056
24.3943037646967511 12.6468144964878828 0.4381224149758909
10.7437815250114035 8.5075537906157894 10.0219658206425866
25.5207399872334086 1.4543321913735994 9.9535400988580385
15.7552003191545609 8.4261573943172063 2.0348001988228273
1.0516835692094622 1.5327483982049839 2.0583747696321484
15.7778963448377318 5.3175432044392403 1.9155853484275731
1.0542786518599201 12.4451198998857517 1.9970113300270405
10.7772416071238588 5.4793367207408936 9.9480237558600084
25.5268284545137902 12.3677440117264421 9.8879810392718266
27.6743373724509567 1.3964571472409748 0.9293900082516150
13.6057301108752213 8.5138804320384160 11.0827512017489926
-1.0976479095688922 1.5843713671466049 11.0804655590698555
13.6591194886543761 5.4393587408057504 10.9748148720142957
-1.0781633544211715 12.4922300995525184 11.0273701317106454
12.9290092670207937 5.3343214616319656 0.9297118059915196
27.6768346824885754 12.3062213549611510 0.8522911272872232
7.9366558310313433 11.0664886951022137 2.9495291651264122
22.8984824856376505 4.0664595775434087 2.8310637190642192
18.3245691954316818 11.0898993538142907 8.9951122747468037
3.6222810617998249 4.0637566958113567 9.0061192779767207
18.5759050942555675 2.8930958133193045 9.0452955446769856
3.7137813836379694 9.8352870006667601 9.0804504437941080
8.2193959178337117 2.8702251720575398 2.9308064303471593
22.8817868567934113 9.8471870909299728 2.8428377134985161
7.3978533129917317 11.0172462413896213 6.0606016946638492
19.1858932196891878 11.1548264531457217 5.9760169686277811
4.4483318276830346 4.1710305521945648 6.0218502483803658
19.1783937500698052 2.9511591532680508 5.9300716147827934
4.3460952598658720 9.9265124592540150 6.0235992520124606
7.3952934755270956 2.7996279475283234 5.9581095912868660
22.1230488574894437 9.7702898487464918 5.8862154059767349
6.4118856002870155 11.1466929232213250 10.2808086436864841
21.2634809397086464 4.2123977437274300 10.2773000825336762
20.1642088864476037 11.0329977573375064 1.5741252546832003
5.4725774006667072 4.0016375870615750 1.6481838360854371
20.1589321152962206 2.8252556600404843 1.6391879074338453
5.2845162046993668 9.7660994726794428 1.7087708306571461
6.3428049887809719 2.9290759773065487 10.3172492238650513
21.0793991060238426 9.9636957766752836 10.2305438453611171
9.9366697347554140 9.6704701741500436 0.9835125770395047
24.8946208724290088 2.6564605427815042 0.9394312320813479
16.3923931808554002 9.7363642907430243 10.8873366738645654
1.7096273896984631 2.7364722719855190 10.9663588420554188
16.4807596453646248 4.2676286417596465 10.8924680337125910
1.7134571376784677 11.2577210880268819 10.9983324897119896
10.1636906698887781 4.1814503849550917 1.0165647571990515
24.8761849666307775 11.1805986404245434 0.9498084755625784
8.5247515012389776 9.6894264171774420 8.5782144102869733
23.2530060954041815 2.6785180901155217 8.4795354156128173
18.1328167830732241 9.6332152409786218 3.4966037968112849
3.3653771010806421 2.6391765526394106 3.5471173836821674
18.0485795260124213 4.2557047041052058 3.4257279079380814
3.2921838955649960 11.2360735749028251 3.4599642241370518
8.4806025060154564 4.2794507786301512 8.4535726973344349
23.2429060422224580 11.2942187209963940 8.3228341163483446
5.5100675204360350 0.0247801577436549 9.4488779286219415
20.3422925831480654 7.0419667509479247 9.3794920951256522
21.0542179292902532 -0.0617141707239154 2.4546309555039083
6.2459784148197750 6.8770038973442187 2.5256968216716102
4.1669090462725364 6.8616364644092132 9.8600717198728347
22.4235365115244356 6.9728837954418088 2.0170281371651950
7.5921670750728243 0.0383072651042037 2.1539709242334766
19.0262164470805253 13.8772211858750705 9.7741822778734182
6.9184225723342951 7.0488598477641506 8.2401694710552107
19.7028947719151688 6.8591917090462475 3.6793770288667282
4.8854394697745587 13.8894202620871816 3.7302591174422539
21.7032791702716246 0.0182048424521140 8.1534700755689311
21.2296061490168384 6.7712447947407925 6.3803731494806746
6.4326281597779351 13.8252145827007489 6.4421873664335552
20.1259536273445043 0.1311265119807188 5.4643537105983881
8.5799084768586749 6.8481248167288165 0.6318610084729158
17.9902745476878536 7.0427918659342916 11.2326648715117887
3.2038468475366013 0.0158159008427327 11.3707301074202789
23.4011009467420585 -0.0873827078407249 0.5895998739387590
