POSCAR file created from dimer generator script with atoms sorted 
1.0
29.4686203002929688 -0.0699200034141541 -0.0508799999952316
-0.0335800014436245 13.9991397857666016 -0.0137700000777841
-3.2760701179504395 -0.0041000000201166 12.0236701965332031
Al C H O Si
3 5 13 155 73
Cartesian
12.8714869164915839 8.4785324438585015 0.9046274484007671
19.2229071295073588 11.0137996328234777 5.9314425261924644
1.7086554078341947 2.7572911313435258 11.0158338811094207
12.2663408504626670 7.2700871043880344 6.2959028595233404
12.6513161313210887 8.6898732928484339 6.7442050385072214
12.8349097786952235 9.3994564100018483 5.4584815490703891
12.4047621880454191 7.2675121498278994 4.7596516694519950
13.5255198336957854 6.4327849681406786 4.1984696966857022
12.9292062115023150 6.5158898283031652 6.7364730530439987
11.2395238412816489 7.0275651435627422 6.5926769578439970
11.8869010313310870 9.2089451823093889 7.3407745150493371
13.5986545139437425 8.7521881496072531 7.2971962026874300
15.1399845344616573 10.1099790415448325 5.4921197844909466
13.6356041125787293 6.6035513306164226 3.1191483987634294
13.2845046977612142 5.3718649750158720 4.3520632329402700
11.4567128105685772 7.0638422693960239 4.2476611117817438
14.4658897597581344 6.6664378928528158 4.7151455386463939
13.6950786978117627 10.7483826439691175 5.4770511576270069
12.5701469356835140 11.1213084686818995 4.3542469563882316
1.7994706043422575 2.9664936437940059 8.6088730478983599
18.3466372127374484 12.8410232403340654 4.7207954184284677
10.1461472001908195 9.5270101659018547 8.7564678104537883
24.7653170657850907 2.3800747379011051 8.7662186720931707
16.5677403309353934 9.2874484523801009 3.0293753683623241
1.8980368777677383 2.5299624546258257 2.9591701773074588
16.5955211713762836 4.3251176786622487 2.8231273555342167
1.7727402841852764 11.4704027963591333 2.9888272591385414
10.0588607277341993 4.5191033610599494 8.6705843906653417
24.7917973884560858 11.3564414251124077 8.8162027840233943
12.3633276116527870 9.0019164351088126 10.0310333082790564
-2.4431526013753864 2.0090719158651562 10.0923851475905497
14.2866399249431986 8.9164909961499266 1.8380276536049598
-0.3934921012598167 2.0435355806556035 1.7211523846241163
14.3485531442113441 4.8024274529185922 1.5259979067996066
-0.4380188916080319 11.9986929015435866 1.7164834470839143
12.3863731256231979 4.9618446916148065 9.8775213967856157
-2.4113395232356147 11.9445052878547813 10.1146486017127426
10.8182644175823111 7.0061542859329444 9.2488612819979856
25.4449275127938961 13.8897409353497938 9.3303642372589621
15.9474622764948109 6.8274830294072597 2.2696244735601767
1.1749285312776125 0.0147316920667488 2.4540188217008718
9.9794539654989283 8.6057170154333509 11.2384213501377044
24.6917027350354310 1.5601875624956434 11.2768624610197001
16.6126400129695178 8.6061890035392405 0.4807758678311286
1.9166510769905982 1.6135935255617226 0.4733669968937642
16.7035566425789206 5.1665378801094937 0.3232285712821810
1.9162401523260102 12.3740235110520427 0.4954525296343504
10.0669060457047017 5.3040909034414341 11.1694824625784150
24.6981831387405677 12.2927715917405518 11.2808920627749742
11.5663656887493449 9.5485588578017069 1.3320265797973760
26.5514218411512388 2.5132931030542123 1.2763690876228864
14.8492227726561197 9.5328659863274900 10.5793207075079838
0.0822280126985602 2.5673043673488842 10.4785511712163899
14.9335590427548208 4.4703648305870249 10.3027497788435696
0.1588794317105107 11.4887108429406322 10.5326395008021922
11.8594621514280423 4.1961221615963442 1.0318252537023418
26.5038836310151176 11.4117032623575323 1.2683288618325197
12.5308740992474039 6.7808664046952387 1.2238221347139389
27.3651980573839246 -0.0475934812083304 1.2584450698252037
14.0351781910397282 6.9814640668640751 10.5003402779971751
-0.7285179763134404 0.0006814443389660 10.5047331318612116
4.0647552571345997 0.0378246189782097 9.8956421028290347
18.7331931468838242 7.0619931257007549 9.7198854292971113
22.6944688536658070 13.8423436856859343 1.9341857415702919
7.9173035060277375 6.7908807666068212 2.0622264239958636
6.3541293477649097 12.7629480864877536 10.0475885695695606
20.9805746375220217 5.7082278363666417 10.0806264852531289
20.3220153108556829 12.5806715535676261 1.8967034253286217
5.5181782962386761 5.6104191051241150 2.1803273429418892
20.4586430017058731 1.1874314446978547 1.5962500290449382
5.7015924643097655 8.2182476198381984 1.7809387792036937
6.4021178792196407 1.3671912363582974 9.8313295251475470
21.0997478954316406 8.3110914619212384 9.7937143303060807
5.5794635567986663 13.9215507477958287 7.7529867111705775
20.4054175260708561 6.7956066746660708 7.7067855818857902
21.0468672747835299 0.1186656436690517 3.9577221354440297
6.3680945787527623 7.1606228339538651 4.1509322072922874
3.3704584690581223 5.6751144187339007 9.1970794950925736
18.0176559398503677 12.5813297049752126 9.4254404460535195
23.2087203583119255 5.6314053359219036 2.4415236579329789
8.3196670868904725 12.6675186145716268 2.7302857521286876
23.3481057292721097 8.2804836520289360 2.3670348986718155
8.6076621954532708 1.2996447775378230 2.5699112435953659
3.5944701182718726 8.2952754652514553 9.4218797064977089
18.3847274277677499 1.1878854629845124 9.1008905175849311
5.7703276147344624 6.7253013924388778 9.2579313153752167
20.4577282984029338 13.5308651260156001 9.1207391113593950
20.9943636779132383 7.1124193196714414 2.5966260055184960
6.2008850256048973 0.2506688165628431 2.7059042300258613
4.2792462775531117 6.7109982833582853 11.4564761394503467
19.1100251550699056 0.0286305765555151 11.3671888354036117
22.3683565781857858 6.9587068465934570 0.3146414737104783
7.6993640089620525 -0.0858449068039681 0.5011851482468903
6.3483154136425961 7.5399060256260935 6.7629158644044933
21.0442042671364860 0.1289482818624425 6.6017489415058819
20.2313254692085778 6.4696770132606201 5.0994280850195119
5.3892330620299775 13.4777046643424683 5.1619562878669516
7.7992770129071172 5.7001300316077348 7.9140727338898857
22.7283081823122544 12.7477649615714039 7.9622070312801325
18.8352996835778654 5.7072172756201400 2.9986317365434330
4.1064522008962436 12.6570417842760268 3.0362141769866384
18.9122707978292866 8.2556063609269899 3.7420311497691046
4.0037443125196663 1.1965542943565624 3.8183966533439415
7.8791125068983447 8.2039404867608550 8.7845897790105898
22.3506020737627829 1.2875800719155117 8.5805261721724744
4.6371004704994414 5.8173191647531608 5.6905049184253924
19.1019965277263672 12.8365560606669931 5.3416297775525230
22.3373417934087257 5.5530697791317403 6.3308290474366862
7.4879109009324658 12.5650632941499598 6.4464203595670018
22.0274255140193773 8.1793367779613035 6.1012863917597357
7.2567682441648618 1.1709134943927419 6.0515302268241280
4.3472186450207984 8.4357923093553779 5.3411807424421207
19.1343166921101648 1.4645179031439637 5.2952073238713160
9.1915113635270966 10.1814005322900094 2.2842256921897852
24.1597772291073447 3.1634174954643832 2.2024545234360988
17.1265176977890583 10.1000612997107471 9.4765301300302678
2.4227340991445137 3.1933434184984812 9.3245116900959566
17.2714382992637603 3.5700697326133950 9.5245870199776661
2.5144624719787849 10.7025401874959076 9.6210869924604854
9.6294211310523945 3.7370747114946989 2.3773365056794047
24.1368673850095767 10.8106740799237766 2.2313208681853172
6.5726035054553442 10.7228037051171476 2.2190499828965331
21.5344889696952109 3.6157889388443190 1.9663946232791141
19.6781173861709640 10.5656055577381434 10.0117775885440725
5.0086961874839400 3.6151425482369195 9.7067784256401275
19.9367763520122487 3.2867199859371770 9.6115905649526230
5.1970144813894761 10.4151755669736570 9.5027385741595705
6.9994348626144562 3.4002054803766621 2.1066008362506152
21.5321204620038174 10.2243541614826619 2.1735329311567182
7.9528356740829524 10.7550572840236818 4.4946227263872700
22.7890512683540756 3.8151017318483098 4.3127217266203921
18.7136362847647071 10.8805415916156960 7.5363722920730174
3.8418977894248938 3.8608249762666862 7.2852890072175862
18.5538089746514459 3.1139885340965106 7.3325843001785840
3.6293048346240266 9.9843224327239959 7.3980872678060710
8.2069476747004551 3.1009539096572909 4.4651448683002757
23.0256496790709946 9.9370908647407781 4.3893398219797986
8.3350517312442314 10.1214836427872807 6.9706730893527684
23.1776889220737594 3.0868360276782423 6.7885753438935996
18.0014373705793176 10.5025996142426923 4.8156424096963883
3.5463017068612777 3.6312451794681828 4.7083333161670815
18.2180686817081323 3.9109235119281749 4.8872777296579235
3.4383578875726903 10.8876838300491841 4.9545508511591887
8.3813714644185602 3.2920137886843692 7.0603967223761259
23.2414715795258182 10.3447469910117675 6.9447272918365801
5.8425792166568424 10.5217468088174400 6.0757140939079708
20.7105789429287270 3.4924655422125905 5.8748750256194890
20.8540348430669233 10.5698573677289147 5.7129576213162974
5.9969316593997011 3.5139397765193099 5.8293447965924559
7.8516808043525277 10.7165983630828041 9.5345186626545750
22.5490657120713962 3.7864898880573072 9.2829000044904344
18.8570694673724510 10.4511687883175597 2.2880169877115999
4.3435331373520487 3.2628496213868279 2.1912057377173983
18.9608730676600601 3.1122353400761309 2.5009658376479220
4.0033613194159123 10.0843628053382570 2.4841789430797738
7.6855315612495563 3.6674523335251319 9.5982211470909640
22.2967769117122856 10.6110532293985163 9.4144860356396034
6.4590908042582793 10.8214572537796627 11.8174109699793934
21.4752480206041270 3.7321303799383654 11.7227714413285167
20.0836860494514866 10.7627657523981934 -0.0103881049795871
5.5112964114984262 4.0688837645298577 -0.0155566484581989
19.8035606565143425 3.1377641045856310 -0.0122337721153263
5.1202834513349051 10.1164493968400642 0.0722148077119658
6.4583727561828592 3.0850440794756837 11.8533122637395572
21.4896320067402762 9.9820501032891222 11.8240716473520919
9.4007536470196378 8.2981493659409793 0.4128807792841341
24.4619236531745088 1.2027930684564669 0.4218306145033461
16.9701840020219095 8.1994959288228024 11.3724016916696868
2.3741268901246868 1.2697131534979915 11.5257939077553839
17.1290648166225274 5.5803171962822988 11.2708292575300781
2.3698749392869605 12.6249141207165909 11.4423544894019127
9.7267474196545614 5.6566547850431323 0.4997372169355125
24.3606292741290957 12.5748734200724552 0.2587971871068345
12.5306449007496976 8.7164933657878674 4.3904777443599139
14.2592679230118247 9.7293960717568684 5.6031270974076808
12.4872174777955216 10.8538399570317434 5.2889950668979040
22.2543229236432225 4.0060568853044201 5.8217653647289751
5.4231311190410905 7.2214803199186282 5.4683711178145842
10.7992692386735545 8.5255624372570189 9.8909439852765928
25.5000784786323464 1.4340603865548391 9.8685936827143994
15.7928356047146075 8.4158521782915141 1.8805620949695754
1.1497459776074068 1.5488610813869095 1.8957497312006517
15.8766629901432061 5.3018287102638153 1.7211326887512988
1.1040794022425338 12.4744231271366459 1.9003224836159469
10.8313742938828881 5.4605579300132954 9.7610234525960280
25.5155664414918490 12.3541672736493240 9.8767833591547429
27.7479136031713125 1.4920144581755734 0.8625451364137325
13.6296337120944315 8.5149620883015533 10.9215549131055383
-1.0881691257707824 1.5565494868925760 10.8886959627683595
13.6830016929299791 5.4073226186179939 10.7626296230801888
-1.0834955536955315 12.4610026444623276 10.9174890125413491
13.0006334505256707 5.3327712229646096 0.7409284506951767
27.7116175929430497 12.4093286205983944 0.8544975831146115
8.0061911842643827 11.0780538990993787 2.9067638807611988
22.9136514090794243 4.0584104469617897 2.7200858085199577
18.4091155490738210 11.0238435717683299 9.0880837046944194
3.7524612425447752 4.1431018049098682 8.8654822736441865
18.5520053043907893 2.7952342666066463 8.9190553036942326
3.7504986536245748 9.8618525533603432 9.0063878592006805
8.3352459305393864 2.8810731739012776 2.8618189608639515
22.9901907520118414 9.8144536225300243 2.7858010293827853
7.3897565357676154 10.9967677288418635 5.9884980707149174
4.5347052574792777 4.2103862142381212 5.8466779465172811
19.1668710664959505 3.0182392754301719 5.8490651920649297
4.3275363904887811 9.9583155006039501 5.9431572890338362
7.4462697531929294 2.7672016654420299 5.8476927685858469
22.2433702348405369 9.7690216895568796 5.7958603476495689
6.4535572100076797 11.1573604557110144 10.2375371365410022
21.2276562659445034 4.1144553265572918 10.1688388539946608
20.2188105200884358 10.9831056575096273 1.5938483443289762
5.6142049132898544 4.0929215394405718 1.5878778600315018
20.2059756746002748 2.7868264913847742 1.5145878994486688
5.3641392811918047 9.7947589649303506 1.6415100963369385
6.3976708536187417 2.9267783038705901 10.2450340424433168
21.1275575884407587 9.8697552992949458 10.2417452981787171
10.0268659005048910 9.7104404288090720 0.9601019916514358
24.9802122846121755 2.6644744132969738 0.8963535671293629
16.4379290187617002 9.6520373891378846 10.8725725401092230
16.4610692892156685 4.1909209681094337 10.7808077830790587
1.7206493615215943 11.2383475688124843 10.9290610857376418
10.2429712695998099 4.1803475389812723 0.9383911592024511
24.9458324081180614 11.1868469031649642 0.8847981067444989
8.5408450910285865 9.6654406620125393 8.5138313897826521
23.2222436455241343 2.6405743651903548 8.3500223360185242
18.0888653795050232 9.6238442347825437 3.4646553367204764
3.4609572445875143 2.6642527358699017 3.4021984893399493
18.1455279880020086 4.2686394254164890 3.2995405955644532
3.3371520015952276 11.2641991542455582 3.3795650957231302
8.4851287620429758 4.2905573118181675 8.3274483258607095
23.2597426948857695 11.2442086543430246 8.2829692313615020
5.6115040767303359 0.0139713418723322 9.3943642812987438
20.3168168021951772 6.9758025259120133 9.3194155088181585
21.1156811005217904 13.9243346647596038 2.3192220839594602
6.3645539592128717 6.9457877222691762 2.5346456047797457
4.2611991195079320 6.8905223300836305 9.8473936288421715
22.4740767835560860 6.9873903891698133 1.9348633559077761
7.7075170819651149 0.0235229736025525 2.1200806252233364
18.9786046520843676 13.8429803597771119 9.7446282046383104
6.9442521198199749 7.0410529995088460 8.1843838467527252
19.7510202972244215 6.8953017313891563 3.6083533139432089
4.9226292307031816 13.9018279728541643 3.6659446934539135
21.6691754635164919 -0.0849447905348974 8.0927968664015335
21.2587276333718300 6.7811402966239109 6.3226084202126076
6.4232667883889096 13.7990443034384835 6.3697412887960798
20.1508481692516312 0.2091018258936194 5.2890104408528940
8.6717119257262709 6.8766953218775466 0.6175395592674711
17.9742860001049571 6.9512105033701852 11.1609705782639299
3.2897270864618200 -0.0171542704861782 11.3463292293210554
23.4752415792836970 13.9054419198056127 0.4973897174006103
