POSCAR file created from dimer generator script with atoms sorted 
1.0
29.4686239299999997 -0.0699228200000000 -0.0508829300000000
-0.0335788000000000 13.9991373299999999 -0.0137711200000000
-3.2760659900000002 -0.0040951700000000 12.0236671499999996
Al C H O Si
1 16 19 152 75
Cartesian
12.6803199999999983 8.5272000000000006 1.0577300000000001
12.3207699999999996 7.6751300000000011 6.7129199999999996
12.4634199999999993 8.3925199999999993 5.3660199999999998
13.2287900000000000 9.6776700000000027 5.4944199999999999
14.5151699999999995 9.8228199999999983 4.9465699999999995
15.2123000000000062 11.0119399999999992 5.0939800000000002
14.6164600000000000 12.1083999999999996 5.7588600000000012
13.3126599999999993 11.9643499999999978 6.3220600000000005
12.6283499999999993 13.2052300000000002 6.8767699999999996
13.0337500000000013 13.4792899999999989 8.3259000000000007
12.9728800000000000 0.3389100000000000 5.9239699999999997
13.4455299999999962 1.5816900000000003 6.3188399999999998
13.8959199999999985 2.5014299999999996 5.3607999999999993
13.8990799999999979 2.1967900000000005 3.9943300000000002
13.4170200000000008 0.9669000000000000 3.5738300000000001
12.9785299999999992 0.0151100000000000 4.5278700000000001
12.6447099999999999 10.7626500000000007 6.1789200000000006
13.3023300000000013 7.3921299999999999 7.1164800000000001
11.7231100000000019 6.7624300000000002 6.5945600000000004
11.8195499999999996 8.3129600000000003 7.4550400000000003
11.4629900000000013 8.6200999999999972 4.9654299999999996
12.9596899999999984 7.7366799999999989 4.6378599999999999
14.9663200000000014 8.9853100000000001 4.4118100000000000
16.2287700000000008 11.1023300000000003 4.7067999999999994
15.2482799999999994 12.9543400000000002 6.0552799999999998
11.5417500000000004 13.0217599999999987 6.8430200000000001
12.8229900000000008 12.5975499999999982 8.9450899999999987
12.5010300000000019 0.3236700000000000 8.7564499999999974
14.1078599999999987 13.7006399999999999 8.4058100000000007
13.4922900000000006 1.8443300000000000 7.3753599999999997
14.2720199999999995 3.4705399999999997 5.6943999999999999
14.2603800000000032 2.9268299999999998 3.2704800000000001
13.3650099999999981 0.7247400000000002 2.5114399999999999
13.9539799999999996 13.0735399999999995 4.8249699999999995
12.3424899999999997 13.1674600000000002 4.1617699999999989
11.6273499999999981 10.6622500000000002 6.5674099999999989
9.9155999999999977 9.5383099999999974 8.8951599999999988
24.6266199999999991 2.5085999999999999 8.8834000000000000
16.4593099999999950 9.2694299999999998 3.1746799999999995
1.6230299999999995 2.4983000000000000 3.1187399999999998
16.2881599999999978 4.3269000000000002 2.9897999999999993
1.4994399999999999 11.4570799999999977 3.0815100000000002
9.8184299999999975 4.5368599999999999 8.8168500000000005
24.5613099999999989 11.4802400000000002 8.8116799999999991
12.1437300000000015 9.0039800000000003 10.2044299999999986
-2.5882199999999997 2.0645500000000001 10.2077299999999997
14.1237900000000014 9.0107999999999997 1.9307099999999997
28.8279899999999998 1.9763999999999995 1.7884500000000001
14.0646400000000007 4.8125400000000012 1.6838400000000002
28.7595000000000027 11.9135600000000004 1.7038299999999997
12.1203599999999998 4.9398400000000002 10.0889399999999991
-2.6574399999999998 11.9960299999999975 10.1878999999999991
10.6026900000000026 7.0126399999999984 9.3849099999999996
25.3028900000000014 -0.0219300000000000 9.4185599999999994
15.6397700000000004 6.8554399999999998 2.4650399999999997
0.8572400000000000 13.9907400000000024 2.5368900000000001
9.7535299999999978 8.5965100000000021 11.3722899999999996
24.5283200000000008 1.6076299999999997 11.3713099999999994
16.4683900000000030 8.5723099999999999 0.6369500000000000
1.6878000000000000 1.6190000000000002 0.6143900000000000
16.4421399999999984 5.2237999999999998 0.5191700000000000
1.6628600000000000 12.3726900000000004 0.5858899999999999
9.7827699999999993 5.3598699999999990 11.3238800000000008
24.4330800000000004 12.3335099999999986 11.3128499999999992
11.3279700000000005 9.5744799999999994 1.4115899999999999
26.3140500000000017 2.5207000000000006 1.3458399999999999
14.6528600000000004 9.4896099999999990 10.6572099999999992
-0.0693700000000002 2.5678299999999994 10.6807200000000009
14.6763599999999990 4.4250199999999991 10.5281500000000001
-0.1067399999999994 11.4731699999999996 10.6046099999999974
11.5701899999999984 4.2662800000000001 1.1724800000000002
26.2267499999999991 11.4197299999999995 1.2989899999999999
12.3126699999999989 6.8433599999999997 1.4199800000000000
27.1195599999999963 -0.0378900000000000 1.3108900000000001
13.8188299999999984 6.9544499999999996 10.6368799999999997
-0.9221499999999994 0.0144100000000000 10.6369099999999985
3.7189399999999995 0.0252400000000000 9.9072200000000006
18.4601199999999963 7.0390199999999989 9.8574499999999983
22.5324899999999992 -0.0242200000000000 2.0982899999999995
7.6410899999999984 6.7864699999999996 2.0876700000000001
5.9809500000000009 12.7148999999999983 10.0601099999999981
20.7124800000000029 5.6722699999999993 10.1516199999999994
20.2124800000000029 12.6384699999999999 1.9207900000000000
5.2334100000000001 5.6146399999999996 2.0565499999999997
20.2239299999999993 1.2550699999999997 1.8360599999999998
5.4243499999999996 8.2296200000000024 1.8370500000000001
6.0421099999999992 1.3381999999999996 9.9504400000000004
20.8273599999999952 8.2778500000000008 9.9483700000000006
5.2781699999999994 13.9578000000000007 7.7878199999999991
20.1267500000000013 6.8457799999999995 7.8245300000000011
20.8445299999999953 0.0292400000000000 4.1319999999999997
6.0329199999999998 7.0306499999999987 4.1540699999999999
3.0701799999999997 5.6501799999999989 9.3023100000000003
17.8102699999999992 12.6043699999999994 9.4740500000000001
23.1362300000000012 5.5910799999999998 2.5138600000000002
8.0509700000000013 12.6856600000000004 2.7174200000000002
23.0490700000000004 8.2500799999999987 2.5695700000000001
8.3259499999999989 1.3259300000000001 2.6095099999999998
3.1733499999999997 8.2980900000000020 9.4780700000000007
17.9622599999999970 1.2556999999999998 9.3228799999999996
5.4148899999999998 6.8740100000000002 9.2374500000000008
20.1613399999999992 13.7753399999999999 9.2309199999999993
20.8107199999999999 6.8172400000000000 2.7171900000000000
5.9139400000000002 0.2554000000000000 2.7032099999999999
3.9975500000000004 6.7815000000000003 11.4981000000000009
18.8067199999999985 0.0274600000000000 11.5048399999999997
22.1788099999999986 6.9410399999999992 0.4379899999999999
7.4057599999999999 -0.0082700000000000 0.5146300000000001
6.2186999999999992 7.4799100000000003 6.7494199999999989
20.9451900000000002 0.3949000000000000 6.7361199999999988
19.9426000000000023 6.5048699999999986 5.2341499999999996
5.2173700000000007 13.4712999999999976 5.1902100000000004
7.4801199999999994 5.6589999999999989 8.1479600000000012
22.2752499999999962 12.6472499999999997 8.1303699999999992
18.4558299999999988 5.7781200000000004 3.2102899999999996
3.8228600000000004 12.6734000000000009 3.1152099999999994
18.9330700000000007 8.3577499999999993 3.6714199999999999
3.7754300000000001 1.2045400000000002 3.9182900000000003
7.6371500000000001 8.2128099999999993 8.8352000000000004
22.3533399999999993 1.2023999999999999 8.7972999999999981
4.3479900000000002 5.8203399999999998 5.8406099999999999
19.1038500000000013 12.7232699999999994 5.7056500000000003
22.0305299999999988 5.5155900000000004 6.4893400000000003
7.2496700000000001 12.5960999999999981 6.5806099999999992
21.8107199999999999 8.1445900000000009 6.2056800000000010
7.0203400000000009 1.2095700000000003 6.1584599999999998
4.1572400000000007 8.4368499999999980 5.4234900000000001
18.8950899999999997 1.3567100000000001 5.4098600000000001
8.9133800000000019 10.1833500000000008 2.3460800000000002
23.9187799999999982 3.0668099999999998 2.3280899999999995
16.9865199999999987 10.0816800000000004 9.5770199999999992
2.2473099999999993 3.1273399999999998 9.5603999999999996
17.0676999999999985 3.7511299999999999 9.5967099999999999
2.2966300000000004 10.7908699999999982 9.6886899999999976
9.2796100000000017 3.8028400000000007 2.4135399999999994
23.8958999999999975 10.7586299999999984 2.3698299999999999
6.2959199999999997 10.7324199999999994 2.3332400000000000
21.3171099999999996 3.6737799999999994 2.1403599999999998
19.5863399999999999 10.6470699999999994 9.8445799999999988
4.8553300000000004 3.7156600000000002 9.7331800000000008
19.7032900000000026 3.2235800000000001 9.7215799999999994
4.9468500000000013 10.2951200000000007 9.6045099999999994
6.6709299999999994 3.3575300000000001 2.1081200000000004
21.2836199999999991 10.1999700000000004 2.1169399999999996
7.7054799999999997 10.8493899999999996 4.5770799999999996
22.6374600000000008 3.8582299999999994 4.4610200000000004
18.3435200000000052 10.9146099999999997 7.5064900000000012
3.5348899999999999 3.8356899999999996 7.4207499999999991
18.3627899999999968 3.0527899999999999 7.4335999999999993
3.3857300000000001 9.9970300000000005 7.4657999999999998
7.8433300000000008 3.1248000000000005 4.4934699999999994
22.5334299999999956 10.0304800000000025 4.4655699999999996
8.1260599999999990 10.1463500000000000 7.0547300000000002
22.9108100000000050 3.0646000000000000 6.9369799999999993
18.0128500000000003 10.4402599999999985 4.9635400000000010
3.2941999999999991 3.6378299999999997 4.8330700000000002
17.9770600000000051 3.8099300000000000 4.9732399999999997
3.2232399999999997 10.8695799999999974 5.0160099999999996
8.1864899999999992 3.3771099999999996 7.0796900000000003
22.9718400000000038 10.3580100000000019 7.0213999999999999
5.6237399999999997 10.5420999999999978 6.1815499999999997
20.4677900000000008 3.4390200000000002 5.8928999999999991
20.4772099999999995 10.4626700000000010 6.0545499999999990
5.7260199999999992 3.5337600000000000 5.9861000000000004
7.5879000000000012 10.7236799999999999 9.5924499999999995
22.3209799999999952 3.7470800000000000 9.4437200000000008
18.6364100000000015 10.6098599999999976 2.3898100000000002
4.0103200000000001 3.2873999999999999 2.2932299999999999
18.6953099999999992 3.2536200000000002 2.4971899999999994
3.7195499999999999 10.1038499999999978 2.5103000000000000
7.5194099999999988 3.4930599999999998 9.6538100000000000
22.2462599999999995 10.4469899999999996 9.5867699999999996
6.2100399999999993 10.8421699999999994 11.8917800000000007
21.1960100000000011 3.7543799999999994 11.8575800000000005
19.7949699999999993 10.8661399999999979 0.0230700000000000
5.1181200000000002 3.9214500000000005 0.0163300000000000
19.7422000000000004 3.1241399999999997 0.0583000000000000
4.9037700000000006 10.1514299999999995 0.1357200000000000
6.2288700000000023 3.0886499999999995 11.9207099999999997
21.1275099999999973 10.0041800000000016 11.9195099999999989
9.1564099999999993 8.3213500000000025 0.4790300000000000
24.2458799999999997 1.1931700000000001 0.4461600000000000
16.8241200000000006 8.2890700000000006 11.5576200000000000
2.0719999999999996 1.3245999999999998 11.5467500000000012
16.8263800000000003 5.6495400000000000 11.4582899999999999
2.0239399999999996 12.6965000000000003 11.5318900000000006
9.4404799999999991 5.6717899999999997 0.4896100000000000
24.0406600000000026 12.5718700000000005 0.4000199999999999
10.5807300000000009 8.5349400000000006 10.0221400000000003
25.3393900000000052 1.5166800000000000 9.9621799999999983
15.6022900000000000 8.4428000000000001 2.0336999999999996
0.8945299999999998 1.5372699999999999 2.0304700000000002
15.5771600000000010 5.3344699999999987 1.9042500000000000
0.8321100000000001 12.4549900000000004 1.9853099999999995
10.5782799999999995 5.4795699999999998 9.9223999999999979
25.2778400000000012 12.4298400000000022 9.9228399999999990
27.5179599999999951 1.5070100000000000 0.9450600000000000
13.4199500000000000 8.4929000000000023 11.0569699999999980
-1.2810999999999999 1.5576900000000000 11.0439799999999995
13.4260599999999997 5.3984600000000000 10.9492899999999995
-1.3245499999999997 12.4664999999999981 11.0098500000000001
12.7347800000000007 5.3945999999999996 0.9092700000000000
27.4427200000000013 12.4161699999999975 0.8930600000000000
7.7567100000000000 11.1004999999999985 2.9778299999999995
22.7338999999999984 4.0458999999999987 2.8557500000000000
18.1881300000000010 11.0593000000000004 9.1062499999999993
3.4427500000000002 4.0875400000000006 9.0181199999999979
18.2737000000000016 2.8292899999999994 9.0309599999999985
3.4748900000000003 9.8483699999999992 9.0784999999999982
8.0256200000000000 2.9043000000000001 2.8999599999999996
22.6729300000000045 9.8079199999999993 2.8693800000000000
7.1764600000000005 11.0307599999999990 6.0934999999999997
21.9979300000000002 3.9729500000000000 5.9422499999999987
18.9915900000000022 11.1337500000000009 6.0446099999999987
4.2488799999999989 4.2081900000000001 6.0179600000000004
18.9286100000000026 2.9117000000000002 5.9258499999999987
4.1204299999999998 9.9591299999999983 6.0249600000000001
7.1879099999999969 2.8126799999999994 5.9373299999999993
21.9282100000000035 9.7443299999999979 5.9357199999999999
6.1837099999999996 11.1213300000000004 10.3003099999999996
20.9697500000000012 4.0838999999999999 10.2839399999999994
19.9857300000000002 11.0646299999999975 1.6236999999999995
5.2821400000000001 4.0493899999999998 1.6335500000000001
19.9994499999999995 2.8453399999999998 1.6365400000000001
5.1098900000000000 9.8103400000000018 1.7114100000000001
6.1559899999999992 2.9143500000000002 10.3088099999999994
20.9247900000000016 9.8512500000000003 10.3111199999999990
9.7954799999999995 9.7284199999999998 1.0394000000000001
24.7313299999999998 2.6456800000000000 0.9889499999999999
16.2237000000000009 9.6814599999999977 10.9586100000000002
1.5279999999999996 2.7382800000000000 10.9596400000000003
16.2398500000000006 4.2339699999999993 10.9134499999999992
1.4688499999999989 11.2675500000000000 10.9957799999999999
9.9687699999999992 4.2177899999999990 0.9954299999999999
24.6456100000000013 11.1855500000000010 0.9952999999999999
8.3287900000000015 9.6691099999999999 8.5989499999999985
23.0473200000000027 2.6424999999999996 8.4988499999999974
17.9745500000000007 9.6591900000000006 3.5344400000000000
3.1909499999999995 2.6669999999999998 3.5443099999999998
17.8455000000000048 4.2841999999999993 3.4217799999999996
3.0792799999999998 11.2635999999999985 3.4511099999999995
8.2637300000000025 4.2723899999999988 8.4360800000000005
23.0075499999999948 11.2289100000000008 8.3887299999999989
5.2863499999999997 0.0039100000000000 9.4313300000000009
20.0349000000000004 6.9594300000000002 9.4405199999999976
20.9465100000000000 -0.0244900000000000 2.5091999999999999
6.0835299999999988 6.9205800000000002 2.5331000000000001
3.9248700000000012 6.9133800000000001 9.8817299999999975
22.2889900000000019 6.9059200000000001 2.0602499999999999
7.4375899999999984 0.0492400000000000 2.1440400000000004
18.6681799999999996 13.9237000000000002 9.8698899999999981
6.6879299999999997 7.0557499999999997 8.2505299999999995
19.5287399999999991 6.8705599999999993 3.7047800000000000
4.6829499999999991 13.9034899999999997 3.7231300000000003
21.4365200000000016 -0.0017100000000000 8.2290099999999988
5.1896900000000006 7.1771900000000013 5.5336200000000000
20.9831799999999973 6.7682799999999990 6.4471899999999991
6.1913999999999998 13.8273899999999994 6.4455499999999990
19.9447699999999983 0.1100800000000000 5.4852299999999996
8.4101400000000037 6.9085000000000001 0.6459699999999999
17.7358199999999968 6.9765199999999989 11.3229299999999995
2.9986500000000005 0.0052600000000000 11.3700799999999980
23.2015700000000002 13.9403999999999986 0.6111400000000000
