   Al     C     H     O     Si          
   1.0000000000000000     
    29.4686203002929688   -0.0699200034141541   -0.0508799999952316
    -0.0335800014436245   13.9991397857666016   -0.0137700000777841
    -3.2760701179504395   -0.0041000000201166   12.0236701965332031
   Al   C    H    O    Si
     3     5    13   155    73
Direct
  0.4487008852917259  0.6047403165307368  0.0813413615247422
  0.7101068238026104  0.7908970406046688  0.5013528833232597
  0.1600585218894563  0.1996086903335043  0.9168019730268064
  0.4507380741385471  0.5422247782544379  0.5118715039498787
  0.4733603572837541  0.6416698215973120  0.5140273256159182
  0.4768651570658515  0.6533560368781564  0.3950591975628868
  0.4621612547772418  0.4913284608716315  0.4129891903457291
  0.5058698493879327  0.4299138982080080  0.4392250535707771
  0.4646039731828699  0.5038834477996094  0.5901697086374865
  0.4125438097343669  0.5487621283975875  0.4983780351134030
  0.4529358175543632  0.6989184212853017  0.5384097944036185
  0.5087976902955518  0.6433472626275385  0.5716086751100415
  0.5449391152698372  0.7185387102846528  0.4623624913816576
  0.5127908115380868  0.4039581643298608  0.3621063487209553
  0.5001714437093501  0.3677854070231239  0.4879638506389127
  0.4319412412571360  0.4509097335121927  0.3628490681666727
  0.5371230958099042  0.4687396358282114  0.4874756315518264
  0.4968134263497994  0.7497569963249638  0.3358284016307230
  0.4342908288593467  0.7100769108941538  0.2467768390990561
  0.1407849676593005  0.2171460830571446  0.7169679318780851
  0.6680934675787457  0.9187806661041744  0.3961620763658881
  0.4269781480283359  0.6818362487102028  0.7326298743649441
  0.9221454821461510  0.1752128112063663  0.7343911895316450
  0.5937902054839571  0.6679536612596876  0.2539174394426028
  0.0931205536317040  0.1820347945639652  0.2481258872194653
  0.5910880082247167  0.3124709129736977  0.2396193039525254
  0.0903292374151949  0.8212296932560510  0.2515553213278953
  0.4232075428087791  0.3244812766589268  0.7287093935609951
  0.9242983080894810  0.8161149275774343  0.7420480321375311
  0.5127722791914092  0.6459688774452367  0.8498258869685297
  0.0107122964053472  0.1449328061561753  0.8412703517890152
  0.5051380494795735  0.6445434149394424  0.1476172383528633
  0.0042557675875451  0.1476315678252136  0.1430879348942377
  0.5028901105703484  0.3433768521583577  0.1372969095462782
  0.0032566089382453  0.8582026367531359  0.1459205442645282
  0.5128952924224327  0.3553390271622320  0.8294860014037468
  0.0128280646441248  0.8534090062458126  0.8445630017969640
  0.4539868932794593  0.5021663027686158  0.7810003040833610
  0.9519813647362932  0.9975638803007589  0.7828477738123284
  0.5615621271955616  0.4913842872971122  0.2018869317458905
  0.0640098493932258  0.0025134450015670  0.2042495387443204
  0.4385924948376788  0.6198698523374838  0.9384906274293561
  0.9430218566164075  0.1167119566908982  0.9434089946548125
  0.5738191663545541  0.6080274377824654  0.0471731091184310
  0.0713539886118809  0.1176095906821375  0.0404927008513382
  0.5700572434167736  0.3801149573078781  0.0338088329303439
  0.0718531597646300  0.8839844295004582  0.0434812734050221
  0.4465760741301562  0.3788063250132129  0.9381987643367841
  0.9445720477791436  0.8853421715224589  0.9465282077673560
  0.4106216925831053  0.6817698123255181  0.1330738783385605
  0.9153514024647205  0.1870519906108438  0.1125492627869212
  0.6020390878437991  0.6843508476963236  0.8824387036523582
  0.0999905811669858  0.1843842966468173  0.8702239683187767
  0.6034295710124314  0.3217951658167372  0.8667876395454733
  0.1038230229445279  0.8231524680815530  0.8754455844451454
  0.4134306350401255  0.3013712454901682  0.0944791975231724
  0.9134344609906049  0.8227312467015048  0.1144375881849490
  0.4396655620966309  0.4855494594430699  0.1105683028418561
  0.9425125984702978  0.0034646211095689  0.1128717913834783
  0.5736345143015609  0.5014835545305557  0.8713739583856999
  0.0722263532733679  0.0013474510371160  0.8745999395670534
  0.2301044801902515  0.0051301546392008  0.8234650082302153
  0.7262501855450185  0.5087643101796091  0.8114910434676765
  0.7924585081800872  0.9981240016616585  0.1674609803720286
  0.2911121573947311  0.4927930568413186  0.1743665767965728
  0.3111600788830081  0.9153732324133927  0.8471096086869333
  0.8058963299572091  0.4124606819258099  0.8433148644875174
  0.7122586208880812  0.9033267468713275  0.1567421560737298
  0.2106109377648209  0.4057119186833474  0.1803258609399360
  0.7110083212464114  0.0894981675433756  0.1384090140245999
  0.2124345932441645  0.5918187475355875  0.1475133392836514
  0.3089394550509033  0.1006858513623689  0.8188296857902473
  0.8078539870524477  0.5982308153979217  0.8223785618610328
  0.2650734731496920  0.9911289259958458  0.6502441471230570
  0.7653984682809232  0.4918162783893717  0.6462338610543554
  0.7523220917652415  0.0104269553629657  0.3328766311799786
  0.2558063625410524  0.5179783679671454  0.3455208669723818
  0.2010149998203111  0.4086050671284575  0.7731850576578491
  0.7011014390856685  0.9039920071896943  0.7951322752399915
  0.8131148012496130  0.4056333989888401  0.2003535055526209
  0.3108534529472072  0.9082314184406718  0.2266578299854292
  0.8167010721350975  0.5951163977592189  0.2014820718084660
  0.3166772467970445  0.0964051560594664  0.2133979686030515
  0.2107315344266524  0.5958345345765917  0.7838627047727004
  0.7079143091399611  0.0900167989045321  0.7622822990632874
  0.2824070632305615  0.4818934077265422  0.7701244597141855
  0.7800443324775916  0.9729464064702524  0.7638234394863276
  0.7399027624925840  0.5063269964571199  0.2213876017991235
  0.2372121562723858  0.0189315449510169  0.2270280770487895
  0.2543541580511308  0.4891197059331918  0.9561754108372428
  0.7556238280252164  0.0114122098018337  0.9509958150339130
  0.7630672748557442  0.5047035983223597  0.0288330582434194
  0.2662999784090614  0.9960306075826466  0.0417826321793760
  0.2800212538239069  0.5395643300287044  0.5629266792660576
  0.7757815666070256  0.0119558836267772  0.5525817064434735
  0.7349654052267556  0.4688522141099781  0.4296894562549426
  0.2333258106960769  0.9671715667901839  0.4332410167704928
  0.3414652033765445  0.4133558382502783  0.6631096120440991
  0.8470760553393747  0.9162088846383770  0.6693675817816327
  0.6684175161604111  0.4122535897831885  0.2549565682056826
  0.1698854498598623  0.9072587827445967  0.2566106571474139
  0.6798401216313117  0.5956086095040115  0.3080086957330868
  0.1733646641321539  0.0895840365605081  0.3173416575095469
  0.3480701516586724  0.5935751479342727  0.7326428476703846
  0.8379907842232343  0.0977339643919244  0.7162071666404816
  0.2110096726928950  0.4186039153504518  0.4703019493393060
  0.6994841519503311  0.9198214070630502  0.4479042175750135
  0.8176982077455486  0.4020442316360440  0.5322115517426315
  0.3169696854887474  0.9007862411860464  0.5356239310539467
  0.8062873920615624  0.5897587746701500  0.5134785235669765
  0.3038836330248620  0.0874954576297109  0.5105544247944256
  0.1989960679047033  0.6062323433275955  0.4494670589356974
  0.6996319399223450  0.1077193757878187  0.4429787035627025
  0.3347991459614846  0.7301641047470772  0.1897735756140563
  0.8415909496804366  0.2279378561501874  0.1874424721760889
  0.6701597650023621  0.7268258602712867  0.7927704411968990
  0.1688794521123951  0.2315379116081593  0.7766673295481953
  0.6744067156312684  0.2616013130554149  0.7929263918477182
  0.1762316356954939  0.7674203984532917  0.8028660171770877
  0.3484255366044302  0.2718148936142410  0.2008358286343312
  0.8412312935125930  0.7770759823265466  0.1902334526868127
  0.2457469823547643  0.7709396448802065  0.1831604066905094
  0.7506948633159928  0.2635994333068862  0.1687482815922607
  0.7620268689444560  0.7588831072281466  0.8432831532107474
  0.2602909684748066  0.2602406093099234  0.8126652344796556
  0.7662459227513108  0.2390190113096796  0.8072392269233533
  0.2675402491877750  0.7461745517779108  0.8060572284656743
  0.2568625619703089  0.2439024855146780  0.1758566939425547
  0.7523928841407141  0.7314707615454004  0.1833986964011894
  0.3138950339803678  0.7714370299265586  0.3729914865685524
  0.8159359542849824  0.2815891622363051  0.3625407318044396
  0.7088835100948621  0.7857126131307983  0.6360749663475204
  0.1994378770206738  0.2835051214891897  0.6099738661224062
  0.7003302177821770  0.2257610164153259  0.6138422051683418
  0.1972752224918415  0.7208603873634204  0.6211833224309541
  0.3193328788744771  0.2229574319713514  0.3730570915374020
  0.8235679614329297  0.7139956021098416  0.3691961319066770
  0.3509582796009827  0.7255986525633162  0.5778650874981354
  0.8507852764263838  0.2262443742364667  0.5682637232564409
  0.6592128244450772  0.7497429376244079  0.4097913978180925
  0.1647391893345134  0.2601638162516746  0.3971206682848184
  0.6651814761741608  0.2819591516469677  0.4100561307646786
  0.1653534870095189  0.7814627314021649  0.4166457302594427
  0.3512154801258249  0.2415901751438738  0.5882704659666175
  0.8558474380596495  0.7454094893210896  0.5815685879194138
  0.2578601580963353  0.7542110879139416  0.5053845087110550
  0.7587092816352163  0.2532280983734118  0.4889642039048349
  0.7634726793625526  0.7608752785031928  0.4823143845382545
  0.2585115972063075  0.2540509056346086  0.4893751495135537
  0.3552771092953672  0.7748136423823222  0.7859831913898075
  0.8512513245657672  0.2758822390900761  0.7750822363508137
  0.6643520826873054  0.7586435971979872  0.2005101518791114
  0.1681993761505137  0.2413302291129140  0.1866294017869514
  0.6676044088616830  0.2275449729687176  0.2090659202538879
  0.1620704724579990  0.7231398665220189  0.2119734725457601
  0.3492910349948660  0.2660559557477073  0.7991314622991302
  0.8434908457849185  0.7620864312331135  0.7846602451774994
  0.3392834817301063  0.7733561063761920  0.9862357999756127
  0.8394052883349551  0.2720925918932458  0.9798147120336622
  0.6817597771095257  0.7707572713169302  0.0045021729895516
  0.1866228803948851  0.2935133039509797  0.9999713025990397
  0.6749433950060080  0.2264168088675286  0.0011789148838600
  0.1748810527759402  0.7271926684870899  0.0085133008193223
  0.3306041980917233  0.2218941418610280  0.9888394308447496
  0.8421099172785118  0.7190149644794690  0.9886817892502686
  0.3299908910224065  0.5935035779754542  0.0379413227682194
  0.8378709860590716  0.0900541147940529  0.0377442128068217
  0.6808739857132552  0.5888898518176645  0.9475676749677289
  0.1880330994871165  0.0942948020345872  0.9590617401971102
  0.6872216800269257  0.4024228475894895  0.9424476501782703
  0.1871725373564916  0.9058641546905317  0.9526007066999518
  0.3358732864163950  0.4051977624014215  0.0425030272780145
  0.8309035035465593  0.9029590408553620  0.0263998508132696
  0.4676508811632776  0.5712634755694148  0.3390310557386987
  0.5263383933334165  0.6947645932296662  0.3901255777480290
  0.4539615936295210  0.7327059695380002  0.3283134952514943
  0.8106899090412554  0.2920716556872708  0.4876275044390301
  0.2361492740074660  0.5193715115463184  0.4555131811506911
  0.4580241071839832  0.6118611866398588  0.8311166491602391
  0.9572770924019268  0.1080480176052465  0.8261532033796027
  0.5567746857325168  0.6036604378468515  0.1619079128346300
  0.0580803381773045  0.1121903349134139  0.1582753646920324
  0.5559231978024164  0.3835077398504830  0.1518032742570170
  0.0573334092626840  0.8921913457880852  0.1603787500688895
  0.4593829507918795  0.3910820411824815  0.8210965993001486
  0.9588652280416261  0.8881539904324299  0.8291802353939445
  0.9514128295941998  0.1130552582289207  0.0776872855467925
  0.5651816839105459  0.6094417259957036  0.9137951233581297
  0.0641452524475080  0.1127277262028470  0.9060943989540641
  0.5650458414422552  0.3903098797322845  0.9013017615049926
  0.0653989644038318  0.8912855862553093  0.9097780038231629
  0.4503356647312784  0.3814540933039899  0.0712355239800046
  0.9508665339763717  0.8931623364489079  0.0796195745096124
  0.3007855559491666  0.7954191100000091  0.2415579113596331
  0.8048557758008357  0.2947848610394799  0.2292633690052292
  0.7110111390942030  0.7933247145109312  0.7644094874051329
  0.2104691773303079  0.2999609671894297  0.7419106681715687
  0.7128723173331355  0.2045475237872225  0.7460414281170392
  0.2136886996957878  0.7087089911477795  0.7548316803330207
  0.3092848128652875  0.2084619228242717  0.2396401214980607
  0.8077139976474527  0.7044838024047221  0.2357873094086551
  0.3094813082937231  0.7886103142327030  0.4978841439036100
  0.2091366474758681  0.3044696324463164  0.4891063324208861
  0.7063782918065610  0.2185883426253993  0.4895525209559286
  0.2051484474561762  0.7156180680039456  0.4980591117878183
  0.3077706425158543  0.2011990674677181  0.4900624880720830
  0.8108418577366736  0.7032239554088114  0.4872759178726572
  0.3178387303303163  0.8006870668537834  0.8563983314898519
  0.8153701131951475  0.2988461977609271  0.8507955562911801
  0.7033511317557339  0.7892350551054850  0.1368659210650698
  0.2059125486246827  0.2964369023979021  0.1331525517151474
  0.7016098183368652  0.2033987375507551  0.1295225350418787
  0.1990925572406668  0.7039759960539533  0.1380994730215259
  0.3126008892736509  0.2118016089860214  0.8547951192034583
  0.8131916443960409  0.7098684874256865  0.8582545618869244
  0.3539937312728380  0.6951863275086207  0.0857538884091332
  0.8583102225744009  0.1954735386119819  0.0790755415072514
  0.6588353521813254  0.6932658255383877  0.9075187356611547
  0.6598557580860692  0.3032333957687172  0.9006618075352930
  0.1604926533697349  0.8064297407775771  0.9101674901967843
  0.3574309623499348  0.3003121704368980  0.0817749369577288
  0.8569680846869324  0.8047858964543276  0.0795404903609776
  0.3703806338814712  0.6950510645752993  0.7078069398157036
  0.8659194990226443  0.1941670583009949  0.6981466948528886
  0.6492225159345035  0.6928071183317972  0.2937109359950856
  0.1501142176480326  0.1937994247221588  0.2857997506948239
  0.6480792392383052  0.3087457016649488  0.2784011056590766
  0.1470533487155492  0.8075375015957951  0.2852839433645000
  0.3664529053717977  0.3107160207194400  0.6960254438713391
  0.8673916669422341  0.8083377147378469  0.6941819541480305
  0.2787436488085112  0.0025680613987451  0.7851263065167675
  0.7766994850399045  0.5032926071342336  0.7803312448667303
  0.7419315458716121  0.9997446138033966  0.1975673040039703
  0.2420177976164750  0.5017837277012891  0.2112128252836185
  0.2376000734136219  0.4965263167525353  0.8218017840053798
  0.7830350655277954  0.5025939036210512  0.1633244199880610
  0.2823347849053752  0.0044202843180800  0.1763179579319869
  0.7362063820553739  0.9953150749536712  0.8176046118826714
  0.3129404500692077  0.5067680411129971  0.6826831855387425
  0.7060125270309421  0.4965023052882112  0.3037234638163241
  0.2038234754511993  0.9961750310911387  0.3081205185069537
  0.8105510761385715  0.9988105072678857  0.6770683306625180
  0.7814780949846585  0.4903242061799437  0.5312046512356599
  0.2800607501273134  0.9877349232075736  0.5338638596130002
  0.7335656231311769  0.0175068367134415  0.4425894620212592
  0.3035405072122344  0.4952197026241327  0.0542891397304014
  0.7139905081189837  0.5014155234596455  0.9315358243577897
  0.2169153947540208  0.0020624046157786  0.9437499178225963
  0.8047855346910071  0.9999378274571424  0.0468682818028831

             NaN             NaN             NaN
             NaN             NaN             NaN
             NaN             NaN             NaN
             NaN             NaN             NaN
             NaN             NaN             NaN
             NaN             NaN             NaN
             NaN             NaN             NaN
             NaN             NaN             NaN
             NaN             NaN             NaN
             NaN             NaN             NaN
             NaN             NaN             NaN
             NaN             NaN             NaN
             NaN             NaN             NaN
             NaN             NaN             NaN
             NaN             NaN             NaN
             NaN             NaN             NaN
             NaN             NaN             NaN
             NaN             NaN             NaN
             NaN             NaN             NaN
             NaN             NaN             NaN
             NaN             NaN             NaN
             NaN             NaN             NaN
             NaN             NaN             NaN
             NaN             NaN             NaN
             NaN             NaN             NaN
             NaN             NaN             NaN
             NaN             NaN             NaN
             NaN             NaN             NaN
             NaN             NaN             NaN
             NaN             NaN             NaN
             NaN             NaN             NaN
             NaN             NaN             NaN
             NaN             NaN             NaN
             NaN             NaN             NaN
             NaN             NaN             NaN
             NaN             NaN             NaN
             NaN             NaN             NaN
             NaN             NaN             NaN
             NaN             NaN             NaN
             NaN             NaN             NaN
             NaN             NaN             NaN
             NaN             NaN             NaN
             NaN             NaN             NaN
             NaN             NaN             NaN
             NaN             NaN             NaN
             NaN             NaN             NaN
             NaN             NaN             NaN
             NaN             NaN             NaN
             NaN             NaN             NaN
             NaN             NaN             NaN
             NaN             NaN             NaN
             NaN             NaN             NaN
             NaN             NaN             NaN
             NaN             NaN             NaN
             NaN             NaN             NaN
             NaN             NaN             NaN
             NaN             NaN             NaN
             NaN             NaN             NaN
             NaN             NaN             NaN
             NaN             NaN             NaN
             NaN             NaN             NaN
             NaN             NaN             NaN
             NaN             NaN             NaN
             NaN             NaN             NaN
             NaN             NaN             NaN
             NaN             NaN             NaN
             NaN             NaN             NaN
             NaN             NaN             NaN
             NaN             NaN             NaN
             NaN             NaN             NaN
             NaN             NaN             NaN
             NaN             NaN             NaN
             NaN             NaN             NaN
             NaN             NaN             NaN
             NaN             NaN             NaN
             NaN             NaN             NaN
             NaN             NaN             NaN
             NaN             NaN             NaN
             NaN             NaN             NaN
             NaN             NaN             NaN
             NaN             NaN             NaN
             NaN             NaN             NaN
             NaN             NaN             NaN
             NaN             NaN             NaN
             NaN             NaN             NaN
             NaN             NaN             NaN
             NaN             NaN             NaN
             NaN             NaN             NaN
             NaN             NaN             NaN
             NaN             NaN             NaN
             NaN             NaN             NaN
             NaN             NaN             NaN
             NaN             NaN             NaN
             NaN             NaN             NaN
             NaN             NaN             NaN
             NaN             NaN             NaN
             NaN             NaN             NaN
             NaN             NaN             NaN
             NaN             NaN             NaN
             NaN             NaN             NaN
             NaN             NaN             NaN
             NaN             NaN             NaN
             NaN             NaN             NaN
             NaN             NaN             NaN
             NaN             NaN             NaN
             NaN             NaN             NaN
             NaN             NaN             NaN
             NaN             NaN             NaN
             NaN             NaN             NaN
             NaN             NaN             NaN
             NaN             NaN             NaN
             NaN             NaN             NaN
             NaN             NaN             NaN
             NaN             NaN             NaN
             NaN             NaN             NaN
             NaN             NaN             NaN
             NaN             NaN             NaN
             NaN             NaN             NaN
             NaN             NaN             NaN
             NaN             NaN             NaN
             NaN             NaN             NaN
             NaN             NaN             NaN
             NaN             NaN             NaN
             NaN             NaN             NaN
             NaN             NaN             NaN
             NaN             NaN             NaN
             NaN             NaN             NaN
             NaN             NaN             NaN
             NaN             NaN             NaN
             NaN             NaN             NaN
             NaN             NaN             NaN
             NaN             NaN             NaN
             NaN             NaN             NaN
             NaN             NaN             NaN
             NaN             NaN             NaN
             NaN             NaN             NaN
             NaN             NaN             NaN
             NaN             NaN             NaN
             NaN             NaN             NaN
             NaN             NaN             NaN
             NaN             NaN             NaN
             NaN             NaN             NaN
             NaN             NaN             NaN
             NaN             NaN             NaN
             NaN             NaN             NaN
             NaN             NaN             NaN
             NaN             NaN             NaN
             NaN             NaN             NaN
             NaN             NaN             NaN
             NaN             NaN             NaN
             NaN             NaN             NaN
             NaN             NaN             NaN
             NaN             NaN             NaN
             NaN             NaN             NaN
             NaN             NaN             NaN
             NaN             NaN             NaN
             NaN             NaN             NaN
             NaN             NaN             NaN
             NaN             NaN             NaN
             NaN             NaN             NaN
             NaN             NaN             NaN
             NaN             NaN             NaN
             NaN             NaN             NaN
             NaN             NaN             NaN
             NaN             NaN             NaN
             NaN             NaN             NaN
             NaN             NaN             NaN
             NaN             NaN             NaN
             NaN             NaN             NaN
             NaN             NaN             NaN
             NaN             NaN             NaN
             NaN             NaN             NaN
             NaN             NaN             NaN
             NaN             NaN             NaN
             NaN             NaN             NaN
             NaN             NaN             NaN
             NaN             NaN             NaN
             NaN             NaN             NaN
             NaN             NaN             NaN
             NaN             NaN             NaN
             NaN             NaN             NaN
             NaN             NaN             NaN
             NaN             NaN             NaN
             NaN             NaN             NaN
             NaN             NaN             NaN
             NaN             NaN             NaN
             NaN             NaN             NaN
             NaN             NaN             NaN
             NaN             NaN             NaN
             NaN             NaN             NaN
             NaN             NaN             NaN
             NaN             NaN             NaN
             NaN             NaN             NaN
             NaN             NaN             NaN
             NaN             NaN             NaN
             NaN             NaN             NaN
             NaN             NaN             NaN
             NaN             NaN             NaN
             NaN             NaN             NaN
             NaN             NaN             NaN
             NaN             NaN             NaN
             NaN             NaN             NaN
             NaN             NaN             NaN
             NaN             NaN             NaN
             NaN             NaN             NaN
             NaN             NaN             NaN
             NaN             NaN             NaN
             NaN             NaN             NaN
             NaN             NaN             NaN
             NaN             NaN             NaN
             NaN             NaN             NaN
             NaN             NaN             NaN
             NaN             NaN             NaN
             NaN             NaN             NaN
             NaN             NaN             NaN
             NaN             NaN             NaN
             NaN             NaN             NaN
             NaN             NaN             NaN
             NaN             NaN             NaN
             NaN             NaN             NaN
             NaN             NaN             NaN
             NaN             NaN             NaN
             NaN             NaN             NaN
             NaN             NaN             NaN
             NaN             NaN             NaN
             NaN             NaN             NaN
             NaN             NaN             NaN
             NaN             NaN             NaN
             NaN             NaN             NaN
             NaN             NaN             NaN
             NaN             NaN             NaN
             NaN             NaN             NaN
             NaN             NaN             NaN
             NaN             NaN             NaN
             NaN             NaN             NaN
             NaN             NaN             NaN
             NaN             NaN             NaN
             NaN             NaN             NaN
             NaN             NaN             NaN
             NaN             NaN             NaN
             NaN             NaN             NaN
             NaN             NaN             NaN
             NaN             NaN             NaN
             NaN             NaN             NaN
             NaN             NaN             NaN
             NaN             NaN             NaN
             NaN             NaN             NaN
             NaN             NaN             NaN
             NaN             NaN             NaN
