POSCAR file created from dimer generator script with atoms sorted 
1.0
15.5975799560546875 0.0000000000000000 0.0000000000000000
0.0000000000000000 15.5975799560546875 0.0000000000000000
0.0000000000000000 0.0000000000000000 25.0000000000000000
C H La Mn O
18 26 32 32 98
Cartesian
8.3988414301738885 12.7575507400170025 14.9036809802055359
7.7257011446586183 11.7795977638215916 15.8567845821380615
7.7149330309357564 9.7122742572755669 14.7121101617813110
6.8771119590310290 8.8198349325666641 13.8854905962944031
6.7555026978448076 7.5118147502389583 13.9412268996238708
6.2174879455951713 6.4616659062030548 13.3063882589340210
4.7560055245398862 6.1036536669312262 13.3754432201385498
3.8836353792771683 7.2695877403452904 12.8770247101783752
3.9171720221715978 8.4877196233019276 13.8135835528373718
4.6047336312412881 9.7316601158854610 13.2459297776222229
6.0601317077889734 9.5200026489555967 12.8098845481872559
7.2929986840717937 4.7326722097791389 14.6204337477684021
6.6585441196166402 3.4601654199079830 14.1712516546249390
8.5528665951142102 5.1717769682422841 14.3178343772888184
8.8371020317399598 6.3507438758651951 15.0439426302909851
7.7502281790843925 6.6814897543927190 15.8145666122436523
7.6756532391077634 7.6936041239614523 16.9084489345550537
6.8284534725139610 5.4947492587798523 15.8249109983444214
7.6618664277584712 13.2050254814585131 14.2405435442924500
8.8899055331530690 13.5430433811852780 15.4710933566093445
9.1430949616060389 12.2365488172145049 14.3060609698295593
8.4756494812372694 11.3006456388766381 16.4955839514732361
6.9784823726722642 12.2827199229186661 16.4748072624206543
6.7769552533513915 6.0085651565427769 12.5023111701011658
4.4354099819179282 5.8602924374181411 14.3906340003013611
4.5693283150394564 5.2305988062998949 12.7478793263435364
2.8574413465721609 6.9038697803230233 12.7903029322624207
4.2078660028105332 7.5576827775857991 11.8763603270053881
2.8944310839103786 8.7731961936915468 14.0715122222900391
4.4156508534906607 8.2105219264458356 14.7431835532188416
4.0407745348857134 10.0969559974591903 12.3839594423770905
4.5814100782067726 10.5072283353838500 14.0145048499107361
6.5019637066238856 10.4897818063855155 12.5757247209548950
6.0858710556440228 8.9041557940763596 11.9091220200061798
6.9747124869700237 2.6361973996376973 14.8144856095314026
5.5738810655307169 3.5207322827407110 14.2209455370903015
6.9553177963221096 3.2201213179375849 13.1526589393615723
9.1973571438247745 4.7502382037127973 13.5662361979484558
9.7150986500655563 6.9575216222301650 14.9220645427703857
6.7831274533950863 8.3129531143376880 16.8207705020904541
7.6283939333507114 7.1832810648134044 17.8721100091934204
8.5530646187035018 8.3325286293429599 16.9006556272506714
7.0586884341528311 4.9000137638331589 16.7161673307418823
5.7694442349675255 5.7321595540438501 15.8685341477394104
0.0000000000000000 0.0000000000000000 0.0000000000000000
0.0000000000000000 0.0000000000000000 3.8993973284959802
0.0000000000000000 3.8993901081505569 0.0000000000000000
0.0000000000000000 3.8993894108843969 3.8993928581476198
3.8993910378387699 0.0000000000000000 0.0000000000000000
3.8993942917475137 0.0000000000000000 3.8993921130895624
3.8993887136182388 3.8993973132342026 0.0000000000000000
3.8993919675269830 3.8993824382228026 3.8993958383798599
7.7987811459893264 0.0000000000000000 0.0000000000000000
7.7987946264684069 0.0000000000000000 3.8993954658508301
7.7987839350539661 3.8993954538577782 0.0000000000000000
7.7987885834950275 3.8993919675269830 3.8993932306766501
11.6981849670410227 0.0000000000000000 0.0000000000000000
11.6981979826759996 0.0000000000000000 3.8993854075670251
11.6981896154820859 3.8993954538577782 0.0000000000000000
11.6981933342349365 3.8993942917475137 3.8994021713733673
0.0000000000000000 7.7987895131832410 0.0000000000000000
0.0000000000000000 7.7987774272364758 3.8993924856185926
0.0000000000000000 11.6981580060828563 0.0000000000000000
0.0000000000000000 11.6981747404706837 3.8993947207927695
3.8993796491581652 7.7987802163011155 0.0000000000000000
3.8993947565916205 7.7987806811452201 3.8993947207927695
3.8993875515079726 11.6981784592235343 0.0000000000000000
3.8993987077665224 11.6981765998471090 3.8993980735540399
7.7987802163011155 7.7987909077155564 0.0000000000000000
7.7987843998980706 7.7987899780273438 3.8993977010250100
7.7987876538068166 11.6981821779763848 0.0000000000000000
7.7987857944303904 11.6981673029649826 3.8994073867797852
11.6981775295353216 7.7987918374037690 0.0000000000000000
11.6981728810942585 7.7987918374037690 3.8993995636701575
11.6981821779763848 11.6981710217178332 0.0000000000000000
11.6981868264174480 11.6981635842121321 3.8994081318378448
1.9497088831874407 1.9497079534992277 1.9497031345963474
1.9497035374802176 1.9496988890391553 5.8490980416536322
1.9496935433319331 5.8490971319615745 1.9497055560350425
1.9497049320125370 5.8490892296117671 5.8490924537181845
5.8491064288437000 1.9497049320125370 1.9497059285640723
5.8490952725851493 1.9496973782958102 5.8490961790084857
5.8490952725851493 5.8490910889881915 1.9497079774737351
5.8491017804026386 5.8490915538322987 5.8491017669439325
9.7485051366102198 1.9497084183433344 1.9497049972414975
9.7485004881691566 1.9497021429478996 5.8490980416536322
9.7484846834695418 5.8490952725851493 1.9497167319059376
9.7485023475455819 5.8490938780528312 5.8491036295890799
13.6479019850003240 1.9497035374802176 1.9497035071253777
13.6478871099889218 1.9497044671684303 5.8491028845310193
13.6478833912360713 5.8490980616497881 1.9497098401188850
13.6478871099889218 5.8491008507144251 5.8491047471761695
1.9496945892311728 9.7484781756520533 1.9497044384479527
1.9497007484155802 9.7484828240931165 5.8490931987762451
1.9496955189193856 13.6478536412132669 1.9497122615575802
1.9496797142197706 13.6478759537303702 5.8491084724664706
5.8490873702353410 9.7484856131577544 1.9496977329254150
5.8490827217942796 9.7484633006406511 5.8490995317697525
5.8490948077410421 13.6478936178064103 1.9497038796544075
5.8490859757030229 13.6478508521486290 5.8490857481956473
9.7484921209752429 9.7484976991045187 1.9497117027640349
9.7484856131577544 9.7484660897052891 5.8490965515375120
9.7484856131577544 13.6478954771828356 1.9497130066156374
9.7484976991045187 13.6478722349775197 5.8491095900535575
13.6478852506124966 9.7484986287927313 1.9497038796544075
13.6478796724832208 9.7484846834695418 5.8491118252277374
13.6478722349775197 13.6478722349775197 1.9497219473123550
13.6478991959356861 13.6478647974718186 5.8491077274084100
1.9496984241950490 1.9497093480315471 0.0000000000000000
0.0000000000000000 1.9497065589669096 1.9496975466609001
1.9497049320125370 0.0000000000000000 1.9497044384479527
1.9497026077920059 1.9497021429478996 3.8993909955024728
0.0000000000000000 1.9497040023243239 5.8490924537181845
1.9497007484155802 0.0000000000000000 5.8490838855504999
1.9496907542672957 5.8490938780528312 0.0000000000000000
0.0000000000000000 5.8491008507144251 1.9497061148285877
1.9497002835714734 3.8993905729946632 1.9497029483318324
1.9497007484155802 5.8490910889881915 3.8993932306766501
0.0000000000000000 5.8490873702353410 5.8491058647632599
1.9497035374802176 3.8993870866638662 5.8490931987762451
5.8490952725851493 1.9497112074079719 0.0000000000000000
3.8993954538577782 1.9497084183433344 1.9497010856866825
5.8490989913379998 0.0000000000000000 1.9496958702802651
5.8490966671174682 1.9497026077920059 3.8993902504444122
3.8993947565916205 1.9496998187273671 5.8490972965955725
5.8491050343113828 0.0000000000000000 5.8490972965955725
5.8490934132087240 5.8490938780528312 0.0000000000000000
3.8993924323710893 5.8490957374292556 1.9497057422995574
5.8490999210262125 3.8993921999490362 1.9497012719511975
5.8490906241440852 5.8490845811707040 3.8993977010250100
3.8994042858957991 5.8490869053912347 5.8490924537181845
5.8490934132087240 3.8993905729946632 5.8490961790084857
9.7484958397280934 1.9497156234269819 0.0000000000000000
7.7987885834950275 1.9497102777197601 1.9496990367770199
9.7484986287927313 0.0000000000000000 1.9497027620673175
9.7485060662984324 1.9496959837634906 3.8993995636701575
7.7987946264684069 1.9497026077920059 5.8491032570600501
9.7485004881691566 0.0000000000000000 5.8491010218858728
9.7484884022223923 5.8490934132087240 0.0000000000000000
7.7987876538068166 5.8491003858703188 1.9497087225317951
9.7485014178573692 3.8993887136182388 1.9497051835060126
9.7485014178573692 5.8490985264938926 3.8993984460830702
7.7988039233505333 5.8490920186764050 5.8491051197052002
9.7484967694163061 3.8993840651771752 5.8490943163633347
13.6478815318596460 1.9497079534992277 0.0000000000000000
11.6981821779763848 1.9497126019402913 1.9497020170092576
13.6478778131067955 0.0000000000000000 1.9497096538543701
13.6478833912360713 1.9496988890391553 3.8994047790765749
11.6982017014288502 1.9496955189193856 5.8491092175245276
13.6478852506124966 0.0000000000000000 5.8490931987762451
13.6478871099889218 5.8490873702353410 0.0000000000000000
11.6981858967292354 5.8490980616497881 1.9497100263834000
13.6478778131067955 3.8993933620593006 1.9497083500027650
13.6478778131067955 5.8490803975737471 3.8994003087282172
11.6981877561056606 5.8490790030414290 5.8491047471761695
13.6479057037531746 3.8993819733786959 5.8491066098213205
1.9496912191114020 9.7484828240931165 0.0000000000000000
0.0000000000000000 9.7484856131577544 1.9497049972414975
1.9496869193034183 7.7987946264684069 1.9496968016028400
1.9496926136437200 9.7484753865874154 3.8993928581476198
0.0000000000000000 9.7484716678345649 5.8490995317697525
1.9497035374802176 7.7987741733277325 5.8490924537181845
1.9496821546513283 13.6478796724832208 0.0000000000000000
-0.0000209808337128 13.6478499224604164 1.9497029483318324
1.9496849437159658 11.6981765998471090 1.9497068598866476
1.9496993538832621 13.6478545709014796 3.8993947207927695
0.0000000000000000 13.6478629380953933 5.8491077274084100
1.9496892435239495 11.6981580060828563 5.8491028845310193
5.8490864405471301 9.7484781756520533 0.0000000000000000
3.8993856921315464 9.7484791053402660 1.9497068598866476
5.8490934132087240 7.7987727787954144 1.9497048109769826
5.8490924835205114 9.7484809647166912 3.8993954658508301
3.8993861569756532 9.7484865428459671 5.8490961790084857
5.8490938780528312 7.7987825405216462 5.8491028845310193
5.8490906241440852 13.6478685162246691 0.0000000000000000
3.8993789518920052 13.6478629380953933 1.9497118890285499
5.8490827217942796 11.6981654435885574 1.9497061148285877
5.8490799327296399 13.6478685162246691 3.8994055241346350
3.8993856921315464 13.6478610787189680 5.8490961790084857
5.8490892296117671 11.6981617248357068 5.8491017669439325
9.7484800350284786 9.7484846834695418 0.0000000000000000
7.7987741733277325 9.7484837537813291 1.9497070461511601
9.7484902615988176 7.7987834702098588 1.9497150555253024
9.7484939803516681 9.7484763162756281 3.8994081318378448
7.7987816108334336 9.7484772459638407 5.8491028845310193
9.7484939803516681 7.7987774272364758 5.8491058647632599
9.7484725975227775 13.6478610787189680 0.0000000000000000
7.7987820756775399 13.6478685162246691 1.9497103989124303
9.7484846834695418 11.6981645139003447 1.9497120752930652
9.7484986287927313 13.6478778131067955 3.8994081318378448
7.7987834702098588 13.6478629380953933 5.8491077274084100
9.7484976991045187 11.6981635842121321 5.8490950614213952
13.6478787427950081 9.7484949100398808 0.0000000000000000
11.6981858967292354 9.7484911912870302 1.9497010856866825
13.6478796724832208 7.7987839350539661 1.9497036933898926
13.6478852506124966 9.7484911912870302 3.8993880152702323
11.6981831076645975 9.7484725975227775 5.8490950614213952
13.6478945474946229 7.7987848647421769 5.8491133153438577
13.6478759537303702 13.6478685162246691 0.0000000000000000
11.6981877561056606 13.6478833912360713 1.9497027620673175
13.6478796724832208 11.6981673029649826 1.9496968016028400
13.6478675865364565 13.6478555005896922 3.8994096219539651
11.6981784592235343 13.6478778131067955 5.8491047471761695
13.6478759537303702 11.6981542873300057 5.8491058647632599
7.0092015954383031 10.7728225936580273 15.1486903429031372
8.8949779120412131 9.5719127199963623 14.9196863174438477
