POSCAR file created from dimer generator script with atoms sorted 
1.0
28.0197390827175035 0.0000000000000000 -7.4607129509473289
0.0000000000000022 13.9680000000000000 0.0000000000000009
0.0000000000000000 0.0000000000000000 12.4489999999999998
Al C H O Si
1 16 19 148 75
Cartesian
12.6677240392965906 8.5190832000000007 6.9970286748767156
10.8358870839970525 11.9505095711999942 1.9433774845683938
12.2187180877995036 12.1837659523199981 1.3172010057518557
13.3190535217752100 11.5975214495999950 2.1565426755410217
13.7825173784415842 10.3139189596800005 1.9175200110103230
14.7865559741247807 9.7072392729600008 2.7004850372936602
15.3434499695781152 10.3761968241599938 3.7689354388808072
14.9018686885431659 11.6876529028800000 4.0595984597282033
13.8829762687774672 12.3367616467199959 3.2601920649944196
13.5206356504606102 13.7943570873599999 3.5022152920751513
13.9236127359743449 0.3573154080000000 4.8807216430859199
14.1195822307240864 0.6807313180800000 2.3900038091412608
15.4000602098286663 0.4417400952000000 1.8821039718460986
15.9340987843096382 1.2767087231999998 0.8995994852902012
15.1935614575264157 2.3555964844799999 0.4197524748234720
13.9161583645887781 2.5998560179200001 0.9246617209393917
13.3825285981010236 1.7656461316800001 1.9041427958133377
10.7590034417305915 12.3931962777599960 2.9475424730716271
10.0594525486853961 12.4050570652799994 1.3151619227916416
10.6190213084315932 10.8768673526399997 2.0295958863504886
12.2533294705014235 11.7110699755200010 0.3259348399591948
12.3955590670722575 13.2562928260799957 1.1604012955945384
13.3543690405202824 9.7551463003199981 1.0823249577819061
15.1135687450113601 8.6939575315200006 2.4624522398857467
16.1127431139897581 9.9215286465600006 4.3923301770573655
15.3366221195584398 12.2469591398400013 4.8892794337526908
13.6058375126685629 11.6376688339199994 4.3162855770781725
12.4265175163899730 13.8640959590400001 3.4114098434892979
13.5089037857066767 13.7206890172799927 5.7027676051277156
13.5389429073850849 1.3788026510399998 4.9912576595843872
15.0163402503943129 0.4167017567999999 4.9849053269555306
15.9973575482497363 13.5689102150400007 2.2468802531664966
16.9337340779959789 1.0837776787200000 0.5085133931637786
15.6101138264283392 3.0058137287999993 -0.3503374374633617
13.3304746476227116 3.4409226556799988 0.5517995804350826
12.3796248018506905 1.9586394734400001 2.2943102588054836
11.7514785712917220 9.4940496000000003 6.0969308883726914
25.7613481126504773 2.5100495999999990 2.3665744128990243
16.2682605114257903 9.4940496000000003 -1.1086438393200164
2.2583909700670319 2.5100495999999990 2.6217126361536458
16.2682605114257903 4.4739503999999997 -1.1086438393200213
2.2583909700670328 11.4579503999999996 2.6217126361536462
11.7514785712917202 4.4739503999999997 6.0969308883726914
25.7613481126504809 11.4579503999999996 2.3665744128990305
14.2228195583874264 8.7858719999999977 6.6887756060991350
0.2129500170286533 1.8018720000000001 10.4191320815728048
13.7969195243301108 8.7858719999999977 -1.7004885570464623
27.8067890656888537 1.8018720000000001 -5.4308450325201285
13.7969195243300948 5.1821279999999987 -1.7004885570464623
27.8067890656888572 12.1661280000000005 -5.4308450325201285
14.2228195583874086 5.1821279999999987 6.6887756060991368
0.2129500170286550 12.1661280000000005 10.4191320815728048
12.3118733529460727 6.9839999999999973 6.6660239293537433
26.3217428943048404 0.0000000000000000 2.9356674538800771
15.7078657297714521 6.9839999999999973 -1.6777368803010728
1.6979961884126809 0.0000000000000000 2.0526195951725916
12.3679128311115090 8.8138079999999999 8.5508199034518491
26.3777823724702571 1.8298080000000001 4.8204634279781899
15.6518262516060176 8.8138079999999999 -3.5625328543991763
1.6419567102472470 1.8298080000000001 0.1678236210744866
15.6518262516059963 5.1541920000000001 -3.5625328543991817
1.6419567102472490 12.1381920000000001 0.1678236210744873
12.3679128311115072 5.1541920000000001 8.5508199034518491
26.3777823724702820 12.1381920000000001 4.8204634279781891
11.2723410329772555 9.5108111999999991 -1.6171160201661101
25.2822105743360019 2.5268111999999987 -5.3474724956397752
16.7473980497402515 9.5108111999999991 6.6054030692187853
2.7375285083815002 2.5268111999999987 10.3357595446924471
16.7473980497402515 4.4571888000000000 6.6054030692187826
2.7375285083815015 11.4411888000000008 10.3357595446924471
11.2723410329772538 4.4571888000000000 -1.6171160201661092
25.2822105743360055 11.4411888000000008 -5.3474724956397726
11.9139930579714903 6.9839999999999973 -2.0643341467428025
25.9238625993302456 0.0000000000000000 -5.7946906222164678
16.1057460247460220 6.9839999999999973 7.0526211957954796
2.0958764833872694 0.0000000000000000 10.7829776712691405
20.0985588440332776 6.9839999999999973 4.9113862002854836
7.9211802386842391 6.9839999999999973 0.0769008487671905
8.2854368467595751 12.6550080000000005 8.1950066804048731
22.2953063881183304 5.6710080000000005 4.4646502049312078
19.7343022359579408 12.6550080000000005 -3.2067196313521982
5.7244326945991890 5.6710080000000005 0.5236368441214627
19.7343022359579372 1.3129919999999997 -3.2067196313521995
5.7244326945991881 8.2969919999999995 0.5236368441214614
8.2854368467595663 1.3129919999999997 8.1950066804048731
22.2953063881183304 8.2969919999999995 4.4646502049312140
21.1436951118186371 6.9839999999999973 2.4769348072151454
6.8760439708988761 6.9839999999999973 2.5113522418375256
5.4386313559554678 5.6542463999999999 8.3280753162211258
19.4485008973142257 12.6382463999999999 4.5977188407474596
22.5811077267620455 5.6542463999999999 -3.3397882671684540
8.5712381854032902 12.6382463999999999 0.3905682083052131
22.5811077267620455 8.3137536000000001 -3.3397882671684496
8.5712381854032884 1.3297536000000001 0.3905682083052122
5.4386313559554678 8.3137536000000001 8.3280753162211241
19.4485008973142222 1.3297536000000001 4.5977188407474587
7.5877453435999005 6.9839999999999973 7.6599813328834685
21.5976148849586522 0.0000000000000000 3.9296248574097996
20.4319937391176012 6.9839999999999973 -2.6716942838307927
6.4221241977588512 0.0000000000000000 1.0586621916428720
6.7751729102010971 6.9839999999999973 10.1569988084609388
20.7850424515598462 0.0000000000000000 6.4266423329872717
21.2445661725164214 6.9839999999999973 -5.1687117594082617
7.2346966311576590 0.0000000000000000 -1.4383552839345999
7.6662006130315099 6.9839999999999973 5.0098625366208109
21.6760701543902670 0.0000000000000000 1.2795060611471456
20.3535384696860007 6.9839999999999973 -0.0215754875681373
6.3436689283272445 0.0000000000000000 3.7087809879055254
9.4678698360502480 5.6738015999999973 6.3937539938748973
23.4777393774089980 12.6578016000000009 2.6633975184012453
18.5518692466672590 5.6738015999999973 -1.4054669448222312
4.5419997053085090 12.6578016000000009 2.3248895306514399
18.5518692466672590 8.2941983999999991 -1.4054669448222223
4.5419997053085090 1.3101984000000000 2.3248895306514381
9.4678698360502480 8.2941983999999991 6.3937539938748973
23.4777393774089944 1.3101984000000000 2.6633975184012337
5.5114826775705339 5.6640240000000004 4.3461607625486609
19.5213522189293016 12.6480239999999942 0.6158042870750009
22.5082564051469696 5.6640240000000004 0.6421262865040109
8.4983868637882249 12.6480239999999942 4.3724827619776789
22.5082564051469696 8.3039760000000005 0.6421262865040118
8.4983868637882232 1.3199760000000000 4.3724827619776754
5.5114826775705330 8.3039760000000005 4.3461607625486600
19.5213522189292839 1.3199760000000000 0.6158042870750027
9.2128902103975161 10.1323871999999984 -0.0641193182714814
23.2227597517562678 3.1483871999999993 -3.7944757937451468
18.8068488723199891 10.1323871999999984 5.0524063673241537
4.7969793309612392 3.1483871999999993 8.7827628427978173
18.8068488723199998 3.8356128000000003 5.0524063673241493
4.7969793309612401 10.8196127999999998 8.7827628427978208
9.2128902103975143 3.8356128000000003 -0.0641193182714805
23.2227597517562678 10.8196127999999998 -3.7944757937451450
6.7275393537604788 10.7455824000000000 0.5764826204775491
20.7374088951192235 3.7615823999999991 -3.1538738549961174
21.2921997289570299 10.7455824000000000 4.4118044285751274
7.2823301875982898 3.7615823999999991 8.1421609040487883
21.2921997289570299 3.2224176000000000 4.4118044285751239
7.2823301875982827 10.2064175999999964 8.1421609040487901
6.7275393537604780 3.2224176000000000 0.5764826204775482
20.7374088951192128 10.2064175999999964 -3.1538738549961143
8.6440895070183554 10.9369440000000004 2.3679899546327539
22.6539590483771001 3.9529439999999996 -1.3623665208409221
19.3756495756991427 10.9369440000000004 2.6202970944199260
5.3657800343404025 3.9529439999999996 6.3506535698935869
19.3756495756991534 3.0310559999999986 2.6202970944199304
5.3657800343404034 10.0150559999999995 6.3506535698935869
8.6440895070183537 3.0310559999999986 2.3679899546327476
22.6539590483771001 10.0150559999999995 -1.3623665208409150
9.6219784010051974 10.3027968000000012 4.7044724726446887
23.6318479423639545 3.3187967999999999 0.9741159971710243
18.3977606817123132 10.3027968000000012 0.2838145764079858
4.3878911403535614 3.3187967999999999 4.0141710518816485
18.3977606817123132 3.6652031999999997 0.2838145764079787
4.3878911403535623 10.6492031999999988 4.0141710518816494
9.6219784010051956 3.6652031999999997 4.7044724726446887
23.6318479423639438 10.6492031999999988 0.9741159971710234
7.0049347706793821 10.4759999999999991 4.3593217622631668
21.0148043120381267 3.4919999999999987 0.6289652867895033
21.0148043120381196 10.4759999999999991 0.6289652867895112
7.0049347706793865 3.4919999999999987 4.3593217622631659
9.7480672268774278 10.7134560000000008 7.3026178643654340
23.7579367682361848 3.7294560000000003 3.5722613888917607
18.2716718558400828 10.7134560000000008 -2.3143308153127511
4.2618023144813355 3.7294560000000003 1.4160256601609129
18.2716718558400828 3.2545439999999992 -2.3143308153127582
4.2618023144813364 10.2385439999999974 1.4160256601609129
9.7480672268774189 3.2545439999999992 7.3026178643654225
23.7579367682361706 10.2385439999999974 3.5722613888917589
9.1932763930396142 10.8293903999999959 9.8529969807941811
23.2031459343983677 3.8453903999999999 6.1226405053205148
18.8264626896778928 10.8293903999999959 -4.8647099317415083
4.8165931483191393 3.8453903999999999 -1.1343534562678457
18.8264626896778999 3.1386095999999988 -4.8647099317415101
4.8165931483191402 10.1226096000000005 -1.1343534562678452
9.1932763930396124 3.1386095999999988 9.8529969807941811
23.2031459343983641 10.1226096000000005 6.1226405053205175
8.9999401933688628 8.3011823999999983 -1.9432373998442811
23.0098097347276145 1.3171823999999996 -5.6735938753179473
19.0197988893486389 8.3011823999999983 6.9315244488969538
5.0099293479898890 1.3171823999999996 10.6618809243706281
19.0197988893486389 5.6668175999999981 6.9315244488969530
5.0099293479898899 12.6508175999999999 10.6618809243706174
8.9999401933688628 5.6668175999999981 -1.9432373998442780
23.0098097347276358 12.6508175999999999 -5.6735938753179438
26.6775935806553477 1.5350831999999999 3.2666721994030485
15.3520150434209413 8.5190832000000007 -2.0087416258240411
1.3421455020621689 1.5350831999999999 1.7216148496496229
15.3520150434209217 5.4489168000000001 -2.0087416258240456
1.3421455020621706 12.4329167999999992 1.7216148496496237
12.6677240392965835 5.4489168000000001 6.9970286748767121
26.6775935806553512 12.4329167999999992 3.2666721994030548
12.3314871703039834 8.5190832000000007 -2.3161724697119164
26.3413567116627405 1.5350831999999999 -6.0465289451855835
15.6882519124135484 8.5190832000000007 7.3044595187645953
1.6783823710547796 1.5350831999999999 11.0348159942382544
15.6882519124135289 5.4489168000000001 7.3044595187645900
1.6783823710547814 12.4329167999999992 11.0348159942382544
12.3314871703039692 5.4489168000000001 -2.3161724697119173
26.3413567116627441 12.4329167999999992 -6.0465289451855808
8.2770309250347545 11.1101472000000001 0.8112531942901602
22.2869004663935009 4.1261472000000001 -2.9191032811835056
19.7427081576827561 11.1101472000000001 4.1770338547625130
5.7328386163240026 4.1261472000000001 7.9073903302361792
19.7427081576827526 2.8578527999999999 4.1770338547625121
5.7328386163240035 9.8418527999999945 7.9073903302361774
8.2770309250347527 2.8578527999999999 0.8112531942901566
22.2869004663935009 9.8418527999999945 -2.9191032811835043
8.4339414638979697 11.0919888000000011 3.9564172017648556
22.4438110052567232 4.1079887999999984 0.2260607262911893
19.5857976188195373 11.0919888000000011 1.0318698472878172
5.5759280774607856 4.1079887999999984 4.7622263227614816
19.5857976188195444 2.8760111999999998 1.0318698472878172
5.5759280774607864 9.8600111999999989 4.7622263227614816
8.4339414638979679 2.8760111999999998 3.9564172017648538
22.4438110052567232 9.8600111999999989 0.2260607262911902
8.6076638462108175 11.0877983999999969 8.3756170814689810
22.6175333875695692 4.1037984000000005 4.6452606059953157
19.4120752365066842 11.0877983999999969 -3.3873300324163091
5.4022056951479351 4.1037984000000005 0.3430264430573553
19.4120752365066842 2.8802015999999999 -3.3873300324163100
5.4022056951479360 9.8642016000000012 0.3430264430573557
8.6076638462108157 2.8802015999999999 8.3756170814689810
22.6175333875695692 9.8642016000000012 4.6452606059953165
9.6752159052623625 9.7077599999999986 -1.5466518819621129
23.6850854466211054 2.7237599999999995 -5.2770083574357791
18.3445231774551480 9.7077599999999986 6.5349389310147874
4.3346536360963981 2.7237599999999995 10.2652954064884483
18.3445231774551480 4.2602399999999987 6.5349389310147865
4.3346536360964016 11.2442400000000013 10.2652954064884483
9.6752159052623536 4.2602399999999987 -1.5466518819621105
23.6850854466211054 11.2442400000000013 -5.2770083574357765
10.1543534435768290 9.7175376000000000 6.1051500265766876
24.1642229849355843 2.7335375999999996 2.3747935511030285
17.8653856391406833 9.7175376000000000 -1.1168629775240113
3.8555160977819289 2.7335375999999996 2.6134934979496487
17.8653856391406833 4.2504623999999991 -1.1168629775240180
3.8555160977819316 11.2344623999999964 2.6134934979496478
10.1543534435768272 4.2504623999999991 6.1051500265766894
24.1642229849355807 11.2344623999999964 2.3747935511030258
7.4532505960028574 0.0000000000000000 7.7841806550480115
21.4631201373616065 6.9839999999999973 4.0538241795743462
20.5664884867146469 0.0000000000000000 -2.7958936059953317
6.5566189453559014 6.9839999999999973 0.9344628694783261
6.2960353718866262 6.9839999999999973 8.6189007999221374
21.7237037108308790 6.9839999999999973 -3.6306137508694634
7.7138341694721282 0.0000000000000000 0.0997427246042002
20.3059049132453744 0.0000000000000000 4.8885443244484721
8.5348125245957522 6.9839999999999973 6.3620932351414439
19.4849265581217601 6.9839999999999973 -1.3738061860887694
5.4750570167629995 0.0000000000000000 2.3565502893848924
22.5446820659545075 0.0000000000000000 2.6317367596677794
6.3828965630430510 6.9839999999999973 4.0419283897741991
21.6368425196744703 6.9839999999999973 0.9463586592784745
7.6269729783157043 0.0000000000000000 4.6767151347521363
20.3927661044017974 0.0000000000000000 0.3115719143005347
8.1845657860617891 6.9839999999999973 -1.5120078529717147
19.8351732966557215 6.9839999999999973 6.5002949020243870
5.8253037552969689 0.0000000000000000 10.2306513774980505
22.1944353274205461 0.0000000000000000 -5.2423643284453805
