POSCAR file created from dimer generator script with atoms sorted 
1.0
29.4686241149902344 -0.0699228197336197 -0.0508829317986965
-0.0335787981748581 13.9991369247436523 -0.0137711204588413
-3.2760660648345947 -0.0040951701812446 12.0236673355102539
Al C H O Si
3 18 28 154 73
Cartesian
12.8318310272060074 8.4495023510457017 1.0439125171654704
4.4483335020511934 4.1710238694138528 6.0218538337297609
21.2296067298194657 6.7712468815070261 6.3803709974293588
15.6820594708408230 11.4827999523607076 6.0644305533021603
15.0089204836139629 10.5048541668346154 7.0175260551269014
14.9981473423440299 8.4375268923444704 5.8728509115222947
14.1603249841459764 7.5450812457510796 5.0462392882878486
14.0387143529812661 6.2370612417364510 5.1019666931374408
13.5007068027049044 5.1869119290566594 4.4671246837370449
12.0392211624450223 4.8288951941606859 4.5361793737446430
11.1668475727382948 5.9948339093918763 4.0377642535236484
11.2003838191840455 7.2129712429207524 4.9743209801201349
11.8879526493095788 8.4569085595502234 4.4066785441729026
13.3433494711404244 8.2452454711552630 3.9706296232091374
14.5762139385216187 3.4579135105450853 5.7811698933875117
13.9417596326807747 2.1854038209952553 5.3319912516837320
15.8360864699479080 3.8970122932088018 5.4785765668642989
16.1203162117032406 5.0759847574992731 6.2046715970850919
15.0334438727888546 5.4067322798623847 6.9753166947727827
14.9588621951488356 6.4188475955510595 8.0691763670359595
14.1116698921954544 4.2199957931025960 6.9856493729107756
14.9450783186613059 11.9302722104136691 5.4012817182323882
16.1731145558482048 12.2682941731635538 6.6318354625713685
16.4263028835903064 10.9617942651488569 5.4667984231363853
15.7588582713119223 10.0258979771506773 7.6563302095040928
14.2616940593924078 11.0079721133152262 7.6355469507053924
14.0601710170108412 4.7338088379926742 3.6630483588814200
11.7186281036453455 4.5855399179633789 5.5513691033435641
11.8525480573790372 3.9558432101226964 3.9086197358623918
10.1406575809079413 5.6291161311574980 3.9510328358857727
11.4910776522350044 6.2829288503343674 3.0371070556393405
10.1776404194796513 7.4984390526196849 5.2322554572940767
11.6988623600409731 6.9357689970366927 5.9039213794141165
11.3239875893293505 8.8222107916002273 3.5447021190620531
11.8646271922671396 9.2324805797559115 5.1752487553131497
13.7851816227874888 9.2150310429044779 3.7364536838671452
13.3690886533373643 7.6294055068773492 3.0698634085096290
14.2579354651993526 1.3614403580921957 5.9752235850043505
12.8570937842575486 2.2459785814811508 5.3816869442842821
14.2385336180596802 1.9453596641665889 4.3134058591618123
16.4805801769859563 3.4754802193551599 4.7269725430414322
16.9983111070658452 5.6827722818761419 6.0828054561885185
14.0663430239618101 7.0381995685071512 7.9815064766025481
14.9116058554844244 5.9085231619929859 9.0328537673583611
15.8362816115744955 7.0577745288508238 8.0613906106918893
14.3418999439845400 3.6252593698626940 7.8768963798811802
13.0526612216535600 4.4574036639593464 7.0292700314086396
2.8101875644370615 4.1650731664117631 7.1826429476451850
22.2950537715196475 8.4859338532458057 7.1009234844195790
10.1133127056719818 9.5258042214446732 8.8960223719665823
24.8097160746878700 2.4543464296970843 8.8811290200576121
16.5923658045445990 9.2907164640887032 3.1636045448047758
1.7918880624334672 2.4997456676836607 3.1346115377409793
16.4841569141764950 4.3171026550073597 3.0089879594100810
1.7185255674651290 11.4571407397009590 3.1002587844019507
10.0492107804089699 4.4847676336755482 8.8665480394902243
24.7956171080095409 11.4026811975535018 8.7943613949087585
12.3062410555565531 8.9854680291674711 10.2376133575817541
-2.4044437737136004 2.0638166150231951 10.2295245943870885
14.2730627161406911 8.9823226004460786 1.9064495223352529
-0.4981893041978420 2.0094223042279040 1.8918615948646851
14.2815977018889857 4.7553531532998523 1.6737003273489357
28.9827476168975799 11.8239106260940510 1.6829845874561922
12.3376570485644574 4.9832382083457611 10.1313334675756437
-2.3984052304788159 12.0360907975207976 10.1767247825380647
10.7886978960770463 6.9950980817906405 9.3683793019455539
25.4656661149411043 -0.0816691874797850 9.4062429989039362
15.8051371303547015 6.8417258086782944 2.4758180744763694
1.0833613584453190 13.9830671974229972 2.5364596553918233
9.9166581723903171 8.5383762548480817 11.3674435590126173
24.7134967676448589 1.5513323452629664 11.3650101438085347
16.6327087935205284 8.5585410762969953 0.6508677053773980
1.8241094967983853 1.6391484744975844 0.6361706585518866
16.6597139910094647 5.2204603859513785 0.5362022462963489
1.8712366316524660 12.3480266784429933 0.5910473387896032
9.9928590053405788 5.3569159849669976 11.3487298288628686
24.7066000573740041 12.2450000597489232 11.2856176214241124
11.4648543693744909 9.4730239599199066 1.3734425593478863
26.4411714972595853 2.3731947288115212 1.3338951405534045
14.7994007955656954 9.5536119634577830 10.6808005871668747
0.1049553651782089 2.6072420140300574 10.7228368363260032
14.9138615857845878 4.4915350382104018 10.5201500302481961
0.1458225597079990 11.5100456244544898 10.6194662314186061
11.7755028706987481 4.1980590148776189 1.1805141772124881
26.4705181273890382 11.2836602173082188 1.2289382198867771
12.5213946798228175 6.7754761049616041 1.4673064007767829
27.2855062421761048 13.8450396001222433 1.2443718180744325
14.0378666173510851 6.9927942207886398 10.6533563632281680
-0.7076033518483924 0.0444048482289887 10.6955952936107224
3.9468284221521279 0.0636058320656170 9.9208751931090529
18.7675258090816754 7.1115977325384350 9.8009268375183396
22.6290901611330817 -0.1202265643145716 2.0273136601723101
7.8013514948552878 6.7494739484909569 2.0649429175862064
6.2333598112048865 12.7457178611238575 10.0885845720611229
21.0560849827302512 5.8133358384540399 10.1597031530457969
20.2691318575321802 12.6181578709836302 1.9072206934144309
5.3999976597038364 5.5661780639220613 2.0664624732701133
20.3686143429932471 1.2190446913418138 1.7344310903085973
5.5819527599489689 8.1818728219788142 1.8313232279639167
6.2904925499406268 1.3531207124137989 9.9509428722994304
21.1136895275447607 8.4045465120170988 9.7952305465101350
5.5417348715197789 13.9548944799232189 7.7955580378398945
20.3896212035356150 6.8506364739744114 7.7677661831917204
20.9637262326150093 0.0398529699370829 4.0736693089177027
6.2215630889940394 6.9845615793600118 4.1462383891224617
3.2828118387112513 5.6425270001511336 9.2386804796009354
18.0386970525996588 12.6835970335039097 9.2616375108709121
23.2048443149859587 5.6221897238551675 2.4626579710999015
8.2224936412327843 12.6480558964302592 2.6693089483600767
23.2156033146633085 8.2742357805450428 2.5796796977771193
8.5028922624874976 1.2846040248213406 2.6632501084130666
3.4722953773658216 8.2840793295889821 9.5070714400075502
18.4129960174026905 1.2957953603595012 9.3175011050751184
5.6631169868509197 6.7889284181634029 9.2263765513612892
20.4997614185457095 13.6104239421522877 9.1422223170194936
20.9177610588541221 6.9535113579924879 2.6169194587816018
6.0758649032973535 0.2521003310436192 2.7184384447324463
4.2289811755550399 6.6547479237766538 11.4699280881473271
19.0417529775815595 13.8322099856639706 11.3961289011513713
22.3527753266281302 7.0542532460074510 0.3946145804016817
7.5720047696560453 0.0430008527339977 0.5267314500914629
6.4489542659259111 7.4305333437105601 6.7334180729642359
21.1594713397262026 0.4162547999887655 6.6798065034609380
20.1979195961377016 6.4489833559427847 5.1696522718184621
5.4401296737305227 13.4981589428689617 5.2007227574379149
7.8172508973516770 5.7166289115645714 8.1546381897238653
22.7146444038871493 12.7803534376545418 7.9472964466454314
18.6855709261055729 5.7241952633210023 3.1564226389935919
4.0629208292646011 12.6325651888469839 3.1339257084807608
18.9895053266194829 8.2914448978437747 3.7701292447426802
3.9161841009272096 1.1668254543337446 3.9304100786818350
7.7957794842613204 8.2601625226987512 8.8334777919545537
22.4466592725602787 1.2989805872094817 8.7922506299148449
4.5542893371192283 5.7837833958598699 5.8644110210141100
19.2996270420637508 12.7596396535093479 5.7114186995676812
22.2898924378196668 5.5349587691575906 6.4460229880726532
7.4784229548662609 12.5799355481917363 6.5504633245472439
22.0089133161230528 8.1625898007475151 6.0882043751160362
7.2567609338591907 1.1962837420924002 6.1874722544775036
4.3778404850581953 8.3999885973199540 5.4405816205597599
19.0915760557709788 1.3925139828648900 5.4291770953842384
9.0816864670112594 10.1476429836035589 2.2941181540460240
24.0942708162328358 3.1364650538626457 2.2628065116644080
17.0404587624275194 10.2268803486808650 9.4777133186895082
2.4098494166654874 3.1389367397887362 9.5610839856113952
17.2593608076907223 3.6694973001225022 9.5929753450553505
2.5122176798166436 10.7429239187335543 9.6877907324528287
9.4895789919984175 3.7432517084507588 2.4317828851983405
24.1146663513909054 10.7612371510118301 2.3191692189561226
6.4715373856365428 10.6690354322657477 2.3555128270637202
21.4581337472806908 3.6295703648350059 2.1991966496982842
19.6567455590474616 10.6359845904641137 9.8097443574597065
5.0214957752975700 3.6883092126728312 9.7504265042131468
19.9295273169649754 3.4299835879157929 9.7587633107803438
5.1760625545434920 10.3433128314391531 9.5772077109726492
6.8684124256816705 3.3365212463459430 2.1479285268630317
21.4992598222988391 10.2506670002430393 2.0765000260823583
7.9477423623635115 10.8313007571041489 4.5527355632684694
22.8880908735563189 3.8739199452706021 4.4343286970955820
18.4946134148352535 10.8638649116006469 7.4075901422495569
3.7389300010447353 3.7704726041868359 7.4182501725252186
18.6481913430688522 3.1286480281878566 7.4483625786939269
3.6260717537498932 9.9658049515293641 7.4690139991598503
8.0721858469278356 3.1146674621381498 4.5253441048818237
22.7356566318610334 10.1152547569914102 4.4312415115702857
8.3670873681955378 10.1494959032797354 7.0272478294307943
23.1509818748448382 3.0782666040904232 6.9092214353871020
18.2124297531102712 10.5341776000999765 4.8468604542416305
3.5064933015023052 3.6182438266239139 4.8249620611217354
18.1922581758608288 3.8311355205305260 4.9892021585657975
3.4435403448127695 10.8325970871953370 5.0209172702933618
8.3894315849493832 3.3814091772339703 7.1033123650713188
23.1357879000715805 10.3431000452871391 7.0151041364015887
5.8552322547973850 10.5120904859503383 6.1518792263730555
20.7159268190986197 3.4575534246070063 5.8497138478944741
20.6622470221704049 10.4779014884666974 5.9966651364755332
5.9321696809132938 3.5047014066804851 5.9961092105777984
7.8233282608540495 10.7695850123283829 9.5677667540980789
22.5642102174471262 3.8402661510243705 9.3814771985795939
18.8274117982160334 10.4515844187628755 2.2741809549839531
4.2046282282320107 3.2253265005244138 2.2930244622360285
18.8385087514187646 3.1660874154022207 2.5119641383193700
3.8986687417972554 10.0721036128551606 2.5035945375364408
7.6945866852479980 3.5481505888601022 9.6674979785759998
22.3200116938283237 10.7171742690724159 9.5232778509205058
6.4420563906827617 10.8309998859877901 11.8640627536229317
21.5218039263030612 3.8259066840389440 11.8300922750225030
19.9987625444736139 10.8695957517917954 -0.0357101012824053
5.3364469435123416 3.8692483550695842 0.0317402786514729
19.9094760964239690 3.1870495303712998 0.0791914756554068
5.1076381882795303 10.1228857133498007 0.1357873532645428
6.4268833833993391 3.1049824334030420 11.9279601619617868
21.2606002434586685 10.0854154735241632 11.8408137388272419
9.2701464899757884 8.2873895364472308 0.4147816201943787
24.2310097921327383 1.2827800179833826 0.3731130990350725
17.0153046785206747 8.3220145953154567 11.3841828255349302
2.2242578224151526 1.2957981221574904 11.5111937522705539
17.1266135594259516 5.6821149199038441 11.3505912482229387
2.3310005540492118 12.6644714553012552 11.5208385999955851
9.6788590533144525 5.6624706844418418 0.5559495327543040
24.3942954469796298 12.6468086706313336 0.4381272255597739
14.2924109671872586 9.4980675094907774 6.3094301791145613
16.1782055479482487 8.2971629507321172 6.0804215980928520
22.2504517452172621 3.9897658127715210 5.9121240554364514
5.3963367546696421 7.1329652483579142 5.5347089278606143
10.7437788932644676 8.5075529688183398 10.0219593790477681
25.5207290703549283 1.4543274243782052 9.9535351081428356
15.7552034874146187 8.4261582136036317 2.0348078930674460
1.0516949453064564 1.5327502496929215 2.0583736736407419
15.7778965879717497 5.3175431983798065 1.9155908995594721
1.0542748948402347 12.4451199079160890 1.9970122319257841
10.7772432644308598 5.4793375540469818 9.9480208868570745
25.5268138059157401 12.3677490571820208 9.8879767616440972
27.6743403590442334 1.3964628748581742 0.9293918777920936
13.6057312814382065 8.5138812742810934 11.0827404539647247
-1.0976315248174930 1.5843751895321785 11.0804633779785586
13.6591233890258259 5.4393608317215305 10.9748005366338326
-1.0781614838323481 12.4922234233804428 11.0273665534286991
12.9290172463977662 5.3343201849838167 0.9297179717899052
27.6768151631308577 12.3062222286110714 0.8522983234591947
7.9366601100780247 11.0664945222736684 2.9495327336141779
22.8984814116595103 4.0664595762009048 2.8310676607295298
18.3245635364454742 11.0898993721938286 8.9951072702132997
3.6222868733823148 4.0637550231079462 9.0061092409809760
18.5759093892650533 2.8930953887534296 9.0452926723559948
3.7137775406570182 9.8352828476450842 9.0804404259415570
8.2194010428086184 2.8702241131720441 2.9308101832568858
22.8817870440563560 9.8471904288283980 2.8428369935488043
7.3978517437878075 11.0172495834557758 6.0606009777469971
19.1858887393694033 11.1548231289709285 5.9760141143439682
19.1783929559853483 2.9511645759799818 5.9300744761131270
4.3460911074942086 9.9265149779926034 6.0235935260754223
7.3952947387940480 2.7996302405699978 5.9581081541803318
22.1230336390967679 9.7702882181611201 5.8862132849148514
6.4118800263528861 11.1466987921648073 10.2807936046266164
21.2634709806605002 4.2124006962781397 10.2772915008937655
20.1642078652895549 11.0329960872288577 1.5741290188235537
5.4725842736023145 4.0016400702660873 1.6481875824738095
20.1589430581447608 2.8252500032306291 1.6391864614444027
5.2845195314197042 9.7660952856674417 1.7087779923268860
6.3427987379353308 2.9290789217659001 10.3172399194929980
21.0793987164382486 9.9636957825516479 10.2305388317290351
9.9366792922580611 9.6704718103858607 0.9835225874977324
24.8946133045572537 2.6564720192693474 0.9394460081056737
16.3923861579412709 9.7363634793648881 10.8873302398518952
1.7096215469518490 2.7364674922428591 10.9663545589080567
16.4807598436355676 4.2676273903833613 10.8924673182774043
1.7134467210049986 11.2577111033745432 10.9983289359433467
10.1636988833444324 4.1814532806799738 1.0165700230602974
24.8761768096686104 11.1805911332100667 0.9498255994264888
8.5247568647470260 9.6894280768057452 8.5782108177310779
23.2530098071092226 2.6785166218003913 8.4795346943171150
18.1328233227702817 9.6332143892839088 3.4966055771667217
3.3653810591842745 2.6391736164499418 3.5471238266960374
18.0485872203584705 4.2557105228191690 3.4257318286933409
3.2921964727770590 11.2360777117982629 3.4599695707682185
8.4806021094247726 4.2794537049540535 8.4535676808294706
23.2429048695603946 11.2942195603099726 8.3228319685611218
5.5100742664636098 0.0247748962097148 9.4488757731698794
20.3422840110445478 7.0419609375001002 9.3794849524043595
21.0542138192666179 -0.0617098621511021 2.4546395542966359
6.2459859694813646 6.8770067938364274 2.5257028945407947
4.1669067110044864 6.8616335473971244 9.8600738757778323
22.4235362735404777 6.9728804447532697 2.0170419302113629
7.5921713055681330 0.0383129813940809 2.1539746719968633
19.0262074644249743 13.8772237160748979 9.7741765602767412
6.9184231601420070 7.0488590140828409 8.2401673218767719
19.7028971311518362 6.8591850366666733 3.6793684354362668
4.8854416042942699 13.8894252617068670 3.7302608996340787
21.7032779984851985 0.0182053167097532 8.1534679281408167
6.4326292422378497 13.8252112495711916 6.4421802045690706
20.1259530495440515 0.1311231735941111 5.4643558638809404
8.5799174597098151 6.8481272930257404 0.6318666763530052
17.9902681125814432 7.0427902208748456 11.2326562883206869
3.2038425680658373 0.0158106536951627 11.3707200914032747
23.4010998994397745 -0.0873836543868531 0.5896037269506076
