   Al     C     H     O     Si          
   1.0000000000000000     
    29.4686241149902344   -0.0699228197336197   -0.0508829317986965
    -0.0335787981748581   13.9991369247436523   -0.0137711204588413
    -3.2760660648345947   -0.0040951701812446   12.0236673355102539
   Al   C    H    O    Si
     1     5    11   155    75
Direct
  0.4479538546839186  0.6067768059387079  0.0885535750985300
  0.4645745992637291  0.5569250440735630  0.5239621799577717
  0.4878046060311677  0.6555952979393536  0.5247955697516389
  0.4895681992664098  0.6675462833015987  0.4051672910821500
  0.4707438230059081  0.5064025556743337  0.4186152239332731
  0.5041264089415289  0.4227658814252434  0.4376835774529803
  0.4811576020375374  0.5163724753821916  0.5992390723129822
  0.4271973720281353  0.5639436880970226  0.5206068498284374
  0.4686626775791159  0.7135225905444155  0.5521507665020863
  0.5241636599969632  0.6565574914032147  0.5773048956740008
  0.5503429996067993  0.6990277304759009  0.3498252959121068
  0.5075613046684101  0.3937961785968626  0.3584745528213478
  0.4898694048388909  0.3658607082967439  0.4802519268767886
  0.4366949238779098  0.4854464893727733  0.3623946494823496
  0.5391618135010985  0.4427866243030572  0.4897498338988199
  0.4958311171727168  0.7698329693310968  0.3368567070892700
  0.4364234651530549  0.7103632519236729  0.2621890623722815
  0.4263292820591424  0.6820689503685966  0.7403344183169071
  0.9250344514645318  0.1825199930653062  0.7436938150442907
  0.5915281713720260  0.6700678581831065  0.2693887616917831
  0.0906555223524402  0.1795191848750231  0.2603842673873897
  0.5891106574265801  0.3143950669228212  0.2519861942929629
  0.0883554552004356  0.8189196458037901  0.2581414158395269
  0.4234212576070009  0.3242787890898110  0.7369371692531410
  0.9236499653552949  0.8225056963422395  0.7378939208024152
  0.5123318602752071  0.6466843646060277  0.8618473002591451
  0.0130362839421236  0.1466829868389505  0.8489370694118260
  0.5049804055349502  0.6484587037412215  0.1513945565555256
  0.0013607460897205  0.1433109768906952  0.1563618833507076
  0.5018411835590559  0.3451361592792188  0.1451659421900831
  0.0010188874860390  0.8550395688685372  0.1486697774412110
  0.5129750866479884  0.3566338293426094  0.8403957556812720
  0.0128919907779965  0.8578361323138817  0.8461278908355475
  0.4539892607754047  0.5027324072145836  0.7880036296514819
  0.9524061396392359  0.0019996737828840  0.7886407846969572
  0.5609550746847961  0.4940120694234382  0.2066176584157337
  0.0616504032482264  0.9993975328733451  0.2117819661611407
  0.4374454150752686  0.6188115328940367  0.9455476451802847
  0.9451135459471378  0.1193066847694485  0.9513969310373553
  0.5764234466769512  0.6159300892971754  0.0580174811949345
  0.0688133727274021  0.1186715776107988  0.0523799515423238
  0.5704907898672520  0.3787382272396528  0.0446660280729595
  0.0701260508022181  0.8821251508627678  0.0497712168554259
  0.4457169624921108  0.3814054008715189  0.9464888179605139
  0.9439713330477413  0.8817938009826162  0.9463568687686251
  0.4098670235766228  0.6815806967865108  0.1411315796405488
  0.9110005033539823  0.1789054476964561  0.1162099734744023
  0.6013166139156475  0.6851020273569792  0.8854812797713498
  0.1028840111480725  0.1860994988753831  0.8912781906295659
  0.6041112446107338  0.3246233368769808  0.8771030906587484
  0.1036864910485893  0.8235071215090920  0.8829270894249498
  0.4121450988501663  0.3044587917323713  0.1037664233906409
  0.9112019587500280  0.8157679504277556  0.1104731832690389
  0.4399959550369903  0.4878910951099765  0.1213413965565660
  0.9393568861853150  0.9984378223605412  0.1112354045393329
  0.5736368783950462  0.5029135436753667  0.8850110701771512
  0.0745516188629389  0.0029899190380218  0.8881174611399789
  0.2275458219668898  0.0060508929286543  0.8287384620105670
  0.7273668043993844  0.5114199731904969  0.8208892334499635
  0.7872169120723859  0.9918683132748658  0.1720516451554585
  0.2878195223129359  0.4912205458882908  0.1788020982124443
  0.3071208361805515  0.9118101495167614  0.8519718401141591
  0.8069966355958896  0.4159445746530380  0.8480265988829679
  0.7060950437733656  0.9030167100604054  0.1673656999966340
  0.2067230188766045  0.4011739539643854  0.1736268924643566
  0.7087693299330270  0.0894139722652100  0.1470406280998109
  0.2083282832672155  0.5876902991915259  0.1529897780408372
  0.3075017753451955  0.0982036001448190  0.8301937423679002
  0.8078052650772554  0.6020729895293642  0.8233285015439297
  0.2634242497033301  0.9933093574103730  0.6565917076909940
  0.7641375363371105  0.4946364508216611  0.6511094849827318
  0.7500731414975470  0.0069665107152122  0.3424983925888057
  0.2506667726051391  0.5063884980098846  0.3478643461961907
  0.1995204535469365  0.4052862793038489  0.7823738497275405
  0.6984410930186429  0.9068384135747515  0.7780847016378188
  0.8096569482023231  0.4081254702532292  0.2131657605789520
  0.3063329499844180  0.9076329276592948  0.2261429514078067
  0.8144364473805695  0.5974992130543891  0.2190658498889970
  0.3151978551468142  0.0952978331654148  0.2260809109856580
  0.2065676347969095  0.5942648815288006  0.7890005246122892
  0.7073762256802919  0.0953138213595740  0.7755820030307129
  0.2790441239852958  0.4867439978143093  0.7718609453502723
  0.7789628177824465  0.9811421044058276  0.7653648479394095
  0.7353357948567246  0.5117379353517160  0.2253036114574304
  0.2337891220720767  0.0200720783428973  0.2327290239203855
  0.2528985195898845  0.4907505550824731  0.9606389276460651
  0.7515627210236722  0.9962440130871988  0.9529785398041650
  0.7633391654411592  0.5097949683797068  0.0393414645537601
  0.2629638806086144  0.0069910677714825  0.0480044643171085
  0.2811703519650670  0.5329124000681392  0.5635492077933094
  0.7810212383321098  0.0342146524733138  0.5588418540413931
  0.7342792809028740  0.4649231368883049  0.4346603286743207
  0.2327903101346052  0.9658811057865264  0.4400255774960878
  0.3410898724444033  0.4108406948174356  0.6794960846077092
  0.8433454386466028  0.9152574750615825  0.6713549943109984
  0.6666255585576472  0.4099001337117157  0.2620707192487635
  0.1683891071327550  0.9049003565426829  0.2645521174593963
  0.6760882760359667  0.5914265281351898  0.3227852998427743
  0.1703909990533773  0.0859377415448832  0.3282427641230656
  0.3468325101901628  0.5932115721269788  0.7362748408451174
  0.8448540457759045  0.0956535627585124  0.7354086532816839
  0.2087167812257324  0.4154536109963999  0.4846158936120543
  0.7097187228367168  0.9140805462449114  0.4809986069910475
  0.8164410296611785  0.3988364152616040  0.5423589961439867
  0.3159191778167186  0.9011201455008009  0.5452086135383213
  0.8047426883732831  0.5866297787911414  0.5124677396455687
  0.3031006580927743  0.0878966336479987  0.5168706444518977
  0.1991228661645567  0.6029413426342223  0.4583032371587119
  0.6984991750798238  0.1018046214439763  0.4552262026732373
  0.3337649136552960  0.7312923096133276  0.1969589691373224
  0.8397467228518045  0.2324270259763214  0.1931190203484361
  0.6690682566691869  0.7291618444554470  0.7943535182808373
  0.1712748367029752  0.2265133113135416  0.7987630034748926
  0.6752133684576467  0.2688387292252007  0.8002944128873459
  0.1765223745483515  0.7700808175821262  0.8092793981256757
  0.3460625280492796  0.2713456918141481  0.2073560913634661
  0.8412586527873771  0.7766271894316281  0.1998176205615258
  0.2442409668008057  0.7648592872149829  0.1931779859902668
  0.7490224092782503  0.2628167597161451  0.1841215698626127
  0.7604159831248383  0.7639603815455616  0.8224310631169969
  0.2619608717471296  0.2637462405068809  0.8161110557953904
  0.7665504941419676  0.2431246633400247  0.8111688013937722
  0.2671031224961807  0.7392814197875323  0.8130392034718168
  0.2543327659065763  0.2391542302121074  0.1785731794545127
  0.7504476759492484  0.7360901442331697  0.1800094281537013
  0.3133327623756484  0.7756757363106699  0.3800302159229534
  0.8171227593804349  0.2807105509076117  0.3731251065632484
  0.6987047552677825  0.7780665732288290  0.6229964517551306
  0.1968267381018027  0.2780788708193871  0.6229333147101268
  0.6999570293750743  0.2267464327753092  0.6207682321859098
  0.1967647076722950  0.7203789031923424  0.6274829607965917
  0.3152024854715508  0.2266104496358687  0.3792870605069764
  0.8149475608962610  0.7263488448964326  0.3753943035288183
  0.3504178539794379  0.7266275841249078  0.5843908077752569
  0.8502993989075373  0.2238777507678016  0.5785978190308075
  0.6628984048848395  0.7563386784711280  0.4102603955775190
  0.1630181181433847  0.2577089620934593  0.4087392794599242
  0.6646468833512896  0.2769136618443639  0.4158246575997400
  0.1641604055069086  0.7765702601730370  0.4215463685839342
  0.3504000369182755  0.2433101293386270  0.5939544636854016
  0.8506573929232553  0.7438291067166352  0.5905433727147612
  0.2570517386756861  0.7529520300533842  0.5106172502345995
  0.7576507476561306  0.2497532528568134  0.4933684483184254
  0.7569660162499318  0.7497919197383891  0.5002854709822681
  0.2566187107980542  0.2523350942873616  0.5022123744738282
  0.3542369517750178  0.7740084231781101  0.7928036793375836
  0.8526423521710106  0.2777727594272477  0.7842561528720188
  0.6616624361132909  0.7458835986240424  0.1964430265318721
  0.1663119808066449  0.2371678881200058  0.1990979246255308
  0.6630966748393579  0.2274395480008049  0.2097409568230325
  0.1588437871529022  0.7220671626106339  0.2138186862818877
  0.3516050657992627  0.2576780707783100  0.8080359562527628
  0.8484963487715409  0.7653417459564757  0.8012895831504986
  0.3383797744351533  0.7723220383510730  0.9931080574334850
  0.8386979931603387  0.2751955301416677  0.9864166827266355
  0.6796259969282636  0.7776530275383304  0.0040187569097929
  0.1815257787629787  0.2782776499672229  0.0068679787083848
  0.6769764861577449  0.2287419398754320  0.0077711278053640
  0.1749793135707133  0.7259993022789534  0.0135824742415186
  0.3301876780253074  0.2217255168390130  0.9963300072348279
  0.8330447832193664  0.7226784406435798  0.9931928193746530
  0.3289342735206287  0.5933295431175588  0.0474590371383374
  0.8282448978058721  0.0951208591494405  0.0408821485177180
  0.6818012992933596  0.5947602765916778  0.9531690481365026
  0.1824082792418375  0.0939444100888464  0.9589657788067507
  0.6874695748164861  0.4072312826252654  0.9521554611760161
  0.1864609156705747  0.9064471279193467  0.9621350927716552
  0.3339728173105511  0.4052514007580933  0.0492779566193279
  0.8317447460346913  0.9073400561220556  0.0384913423633845
  0.4890930254964596  0.5817102266480011  0.3563221478096600
  0.5302433075662296  0.7296297691479705  0.3937861582111615
  0.4554620843135069  0.7369037066823810  0.3391382303398895
  0.8099986582370032  0.2885479655647064  0.4968487819412662
  0.2345535462051112  0.5132290290373841  0.4625305674661189
  0.4572676440126830  0.6120830050054844  0.8385693276033119
  0.9590080610827673  0.1120159648536712  0.8336584812876772
  0.5563041158894841  0.6058218866463011  0.1674829076845586
  0.0555284366158860  0.1101859787921695  0.1703478447294396
  0.5549545233747740  0.3841753656241177  0.1607855429005769
  0.0553242320727993  0.8894701418159451  0.1665883484389560
  0.4590069918553203  0.3919257220456016  0.8293419778378304
  0.9586048147461930  0.8910692029757697  0.8298781823090060
  0.9492883293291998  0.1094920241180803  0.0836471846390546
  0.5652468094775140  0.6120039687345660  0.9229296617734218
  0.0650742914107718  0.1129205011454199  0.9203270193838274
  0.5651097959743391  0.3910392386223656  0.9121912678129594
  0.0653679030880635  0.8918613122417186  0.9170637840069459
  0.4492316346476418  0.3835751651191581  0.0795844731491892
  0.9487968558874419  0.8884514309946373  0.0789744466356681
  0.2988889887683975  0.7948423016652402  0.2476674606494676
  0.8033036798426129  0.2958098691850209  0.2399306684721625
  0.7072776719100694  0.7946438028939695  0.7552287307048058
  0.2079233399533802  0.2936240884997109  0.7559440049689330
  0.7127667820991603  0.2087504950513209  0.7533355879580675
  0.2125222561333886  0.7063618552288115  0.7609787732722654
  0.3072562632124163  0.2082124609649406  0.2473731306303137
  0.8048019193539669  0.7091299978398097  0.2427752557454370
  0.3086966488796782  0.7894681124816717  0.5051652887212632
  0.7077254139658183  0.7999861775531556  0.5032667189218925
  0.2068182535324932  0.3009630114623778  0.5042557192165441
  0.7056669159183769  0.2133022273588487  0.4963952904473763
  0.2046800017512477  0.7129272623989926  0.5044333491007574
  0.3058961119476742  0.2024487974192909  0.4985758920591930
  0.8064955820823835  0.7015364964034547  0.4952363014432964
  0.3163462661297879  0.7977570285263386  0.8627758676535238
  0.8157888261214130  0.3018369310534718  0.8568834390698583
  0.7001335738050767  0.7902369876332598  0.1377605108951890
  0.2028344674643394  0.2888474017799210  0.1407190552455562
  0.7000021197253715  0.2034124684499979  0.1375912194799897
  0.1970470707272433  0.7007521094421814  0.1438072229556527
  0.3123215565291612  0.2106651758851899  0.8619275168778997
  0.8118652449510504  0.7136975789518498  0.8591039106953431
  0.3533236474788709  0.6950589035129147  0.0939120080508643
  0.8544711814579362  0.1956363934059591  0.0838151706940335
  0.6579157755767542  0.6968772630981012  0.9098792721946742
  0.1596072052985036  0.1965756354397164  0.9142547807975402
  0.6606431789805549  0.3073045800703237  0.9093896238999141
  0.1603576239439661  0.8063229457381287  0.9168652212349668
  0.3559278674849776  0.3008392290235673  0.0891459842179404
  0.8544371281713167  0.8051161448808093  0.0855070607106119
  0.3695389993665376  0.6948260514409809  0.7139194636423768
  0.8682137838056042  0.1956100416721918  0.7093345065796249
  0.6484025677509164  0.6913193410865108  0.2986589949176637
  0.1477902727708733  0.1908990266849928  0.2988993480559991
  0.6460130908032102  0.3063739148997519  0.2857552841135294
  0.1452072150071603  0.8048603854805361  0.2911142009307776
  0.3666346850633715  0.3083878206446919  0.7054415512103673
  0.8665606846191406  0.8107963662172352  0.7004144329039851
  0.2767008333740166  0.0020511374902964  0.7915538158888302
  0.7768671172099411  0.5058447818013977  0.7856204306087363
  0.7378136061764078  0.9978574352148626  0.2077862653345835
  0.2381629436204128  0.4966153742760049  0.2132939552552649
  0.2346629487323822  0.4952674601827333  0.8258239412936551
  0.7806793059399316  0.5058527041298584  0.1744226651061142
  0.2793168750851318  0.0065499236487310  0.1832266477309928
  0.7343607028067448  0.9962403932008643  0.8179227687619863
  0.3117127601002559  0.5056854892744290  0.6881166479842269
  0.7035279713848958  0.4945010253027617  0.3111963588115904
  0.2017231547079264  0.9945791326974482  0.3164510071105472
  0.8116977344227972  0.0060310354115558  0.6829228969776482
  0.7803463107704696  0.4876659772865641  0.5365115680489627
  0.2791229372021242  0.9885400032644898  0.5411496215154029
  0.7344758830551108  0.0130776652134750  0.4580100379940902
  0.3014884719077334  0.4954422234587311  0.0599989347147451
  0.7146251166029610  0.5055594833044194  0.9404580425510374
  0.2146109813254715  0.0031373849247286  0.9481149278861679
  0.8000509768728492  0.9980612999417769  0.0525307104371169

             NaN             NaN             NaN
             NaN             NaN             NaN
             NaN             NaN             NaN
             NaN             NaN             NaN
             NaN             NaN             NaN
             NaN             NaN             NaN
             NaN             NaN             NaN
             NaN             NaN             NaN
             NaN             NaN             NaN
             NaN             NaN             NaN
             NaN             NaN             NaN
             NaN             NaN             NaN
             NaN             NaN             NaN
             NaN             NaN             NaN
             NaN             NaN             NaN
             NaN             NaN             NaN
             NaN             NaN             NaN
             NaN             NaN             NaN
             NaN             NaN             NaN
             NaN             NaN             NaN
             NaN             NaN             NaN
             NaN             NaN             NaN
             NaN             NaN             NaN
             NaN             NaN             NaN
             NaN             NaN             NaN
             NaN             NaN             NaN
             NaN             NaN             NaN
             NaN             NaN             NaN
             NaN             NaN             NaN
             NaN             NaN             NaN
             NaN             NaN             NaN
             NaN             NaN             NaN
             NaN             NaN             NaN
             NaN             NaN             NaN
             NaN             NaN             NaN
             NaN             NaN             NaN
             NaN             NaN             NaN
             NaN             NaN             NaN
             NaN             NaN             NaN
             NaN             NaN             NaN
             NaN             NaN             NaN
             NaN             NaN             NaN
             NaN             NaN             NaN
             NaN             NaN             NaN
             NaN             NaN             NaN
             NaN             NaN             NaN
             NaN             NaN             NaN
             NaN             NaN             NaN
             NaN             NaN             NaN
             NaN             NaN             NaN
             NaN             NaN             NaN
             NaN             NaN             NaN
             NaN             NaN             NaN
             NaN             NaN             NaN
             NaN             NaN             NaN
             NaN             NaN             NaN
             NaN             NaN             NaN
             NaN             NaN             NaN
             NaN             NaN             NaN
             NaN             NaN             NaN
             NaN             NaN             NaN
             NaN             NaN             NaN
             NaN             NaN             NaN
             NaN             NaN             NaN
             NaN             NaN             NaN
             NaN             NaN             NaN
             NaN             NaN             NaN
             NaN             NaN             NaN
             NaN             NaN             NaN
             NaN             NaN             NaN
             NaN             NaN             NaN
             NaN             NaN             NaN
             NaN             NaN             NaN
             NaN             NaN             NaN
             NaN             NaN             NaN
             NaN             NaN             NaN
             NaN             NaN             NaN
             NaN             NaN             NaN
             NaN             NaN             NaN
             NaN             NaN             NaN
             NaN             NaN             NaN
             NaN             NaN             NaN
             NaN             NaN             NaN
             NaN             NaN             NaN
             NaN             NaN             NaN
             NaN             NaN             NaN
             NaN             NaN             NaN
             NaN             NaN             NaN
             NaN             NaN             NaN
             NaN             NaN             NaN
             NaN             NaN             NaN
             NaN             NaN             NaN
             NaN             NaN             NaN
             NaN             NaN             NaN
             NaN             NaN             NaN
             NaN             NaN             NaN
             NaN             NaN             NaN
             NaN             NaN             NaN
             NaN             NaN             NaN
             NaN             NaN             NaN
             NaN             NaN             NaN
             NaN             NaN             NaN
             NaN             NaN             NaN
             NaN             NaN             NaN
             NaN             NaN             NaN
             NaN             NaN             NaN
             NaN             NaN             NaN
             NaN             NaN             NaN
             NaN             NaN             NaN
             NaN             NaN             NaN
             NaN             NaN             NaN
             NaN             NaN             NaN
             NaN             NaN             NaN
             NaN             NaN             NaN
             NaN             NaN             NaN
             NaN             NaN             NaN
             NaN             NaN             NaN
             NaN             NaN             NaN
             NaN             NaN             NaN
             NaN             NaN             NaN
             NaN             NaN             NaN
             NaN             NaN             NaN
             NaN             NaN             NaN
             NaN             NaN             NaN
             NaN             NaN             NaN
             NaN             NaN             NaN
             NaN             NaN             NaN
             NaN             NaN             NaN
             NaN             NaN             NaN
             NaN             NaN             NaN
             NaN             NaN             NaN
             NaN             NaN             NaN
             NaN             NaN             NaN
             NaN             NaN             NaN
             NaN             NaN             NaN
             NaN             NaN             NaN
             NaN             NaN             NaN
             NaN             NaN             NaN
             NaN             NaN             NaN
             NaN             NaN             NaN
             NaN             NaN             NaN
             NaN             NaN             NaN
             NaN             NaN             NaN
             NaN             NaN             NaN
             NaN             NaN             NaN
             NaN             NaN             NaN
             NaN             NaN             NaN
             NaN             NaN             NaN
             NaN             NaN             NaN
             NaN             NaN             NaN
             NaN             NaN             NaN
             NaN             NaN             NaN
             NaN             NaN             NaN
             NaN             NaN             NaN
             NaN             NaN             NaN
             NaN             NaN             NaN
             NaN             NaN             NaN
             NaN             NaN             NaN
             NaN             NaN             NaN
             NaN             NaN             NaN
             NaN             NaN             NaN
             NaN             NaN             NaN
             NaN             NaN             NaN
             NaN             NaN             NaN
             NaN             NaN             NaN
             NaN             NaN             NaN
             NaN             NaN             NaN
             NaN             NaN             NaN
             NaN             NaN             NaN
             NaN             NaN             NaN
             NaN             NaN             NaN
             NaN             NaN             NaN
             NaN             NaN             NaN
             NaN             NaN             NaN
             NaN             NaN             NaN
             NaN             NaN             NaN
             NaN             NaN             NaN
             NaN             NaN             NaN
             NaN             NaN             NaN
             NaN             NaN             NaN
             NaN             NaN             NaN
             NaN             NaN             NaN
             NaN             NaN             NaN
             NaN             NaN             NaN
             NaN             NaN             NaN
             NaN             NaN             NaN
             NaN             NaN             NaN
             NaN             NaN             NaN
             NaN             NaN             NaN
             NaN             NaN             NaN
             NaN             NaN             NaN
             NaN             NaN             NaN
             NaN             NaN             NaN
             NaN             NaN             NaN
             NaN             NaN             NaN
             NaN             NaN             NaN
             NaN             NaN             NaN
             NaN             NaN             NaN
             NaN             NaN             NaN
             NaN             NaN             NaN
             NaN             NaN             NaN
             NaN             NaN             NaN
             NaN             NaN             NaN
             NaN             NaN             NaN
             NaN             NaN             NaN
             NaN             NaN             NaN
             NaN             NaN             NaN
             NaN             NaN             NaN
             NaN             NaN             NaN
             NaN             NaN             NaN
             NaN             NaN             NaN
             NaN             NaN             NaN
             NaN             NaN             NaN
             NaN             NaN             NaN
             NaN             NaN             NaN
             NaN             NaN             NaN
             NaN             NaN             NaN
             NaN             NaN             NaN
             NaN             NaN             NaN
             NaN             NaN             NaN
             NaN             NaN             NaN
             NaN             NaN             NaN
             NaN             NaN             NaN
             NaN             NaN             NaN
             NaN             NaN             NaN
             NaN             NaN             NaN
             NaN             NaN             NaN
             NaN             NaN             NaN
             NaN             NaN             NaN
             NaN             NaN             NaN
             NaN             NaN             NaN
             NaN             NaN             NaN
             NaN             NaN             NaN
             NaN             NaN             NaN
             NaN             NaN             NaN
             NaN             NaN             NaN
             NaN             NaN             NaN
             NaN             NaN             NaN
             NaN             NaN             NaN
             NaN             NaN             NaN
             NaN             NaN             NaN
             NaN             NaN             NaN
             NaN             NaN             NaN
             NaN             NaN             NaN
             NaN             NaN             NaN
             NaN             NaN             NaN
             NaN             NaN             NaN
