Al1 Si75 H19 C16 O148
1.0
  28.0197390827175035    0.0000000000000000   -7.4607129509473289
   0.0000000000000022   13.9680000000000000    0.0000000000000009
   0.0000000000000000    0.0000000000000000   12.4489999999999998
Al Si H C O
1 75 19 16 148
direct
   0.4521000000000000    0.6099000000000000    0.8330000000000000 Al
   0.9520999999999999    0.1099000000000000    0.8330000000000000 Si
   0.5479000000000001    0.6099000000000000    0.1670000000000000 Si
   0.0479000000000000    0.1099000000000000    0.1670000000000000 Si
   0.5479000000000001    0.3901000000000000    0.1670000000000000 Si
   0.0479000000000000    0.8901000000000000    0.1670000000000000 Si
   0.4521000000000000    0.3901000000000000    0.8330000000000000 Si
   0.9520999999999999    0.8901000000000000    0.8330000000000000 Si
   0.4401000000000000    0.6099000000000000    0.0777000000000000 Si
   0.9401000000000000    0.1099000000000000    0.0777000000000000 Si
   0.5599000000000000    0.6099000000000000    0.9223000000000000 Si
   0.0599000000000000    0.1099000000000000    0.9223000000000000 Si
   0.5599000000000000    0.3901000000000000    0.9223000000000000 Si
   0.0599000000000000    0.8901000000000000    0.9223000000000000 Si
   0.4401000000000000    0.3901000000000000    0.0777000000000000 Si
   0.9401000000000000    0.8901000000000000    0.0777000000000000 Si
   0.2954000000000000    0.7954000000000000    0.2422000000000000 Si
   0.7954000000000000    0.2954000000000000    0.2422000000000000 Si
   0.7046000000000000    0.7954000000000000    0.7578000000000000 Si
   0.2046000000000000    0.2954000000000000    0.7578000000000000 Si
   0.7046000000000000    0.2046000000000000    0.7578000000000000 Si
   0.2046000000000000    0.7046000000000000    0.7578000000000000 Si
   0.2954000000000000    0.2046000000000000    0.2422000000000000 Si
   0.7954000000000000    0.7046000000000000    0.2422000000000000 Si
   0.3010000000000000    0.7941000000000000    0.4982000000000000 Si
   0.8010000000000000    0.2941000000000000    0.4982000000000000 Si
   0.6990000000000000    0.7941000000000000    0.5018000000000000 Si
   0.1990000000000000    0.2941000000000000    0.5018000000000000 Si
   0.6990000000000000    0.2059000000000000    0.5018000000000000 Si
   0.1990000000000000    0.7059000000000000    0.5018000000000000 Si
   0.3010000000000000    0.2059000000000000    0.4982000000000000 Si
   0.8010000000000000    0.7059000000000000    0.4982000000000000 Si
   0.3072000000000000    0.7938000000000000    0.8569000000000000 Si
   0.8072000000000000    0.2938000000000000    0.8569000000000000 Si
   0.6928000000000000    0.7938000000000000    0.1431000000000000 Si
   0.1928000000000000    0.2938000000000000    0.1431000000000000 Si
   0.6928000000000000    0.2062000000000000    0.1431000000000000 Si
   0.1928000000000000    0.7062000000000000    0.1431000000000000 Si
   0.3072000000000000    0.2062000000000000    0.8569000000000000 Si
   0.8072000000000000    0.7062000000000000    0.8569000000000000 Si
   0.3453000000000000    0.6950000000000000    0.0827000000000000 Si
   0.8453000000000001    0.1950000000000000    0.0827000000000000 Si
   0.6546999999999999    0.6950000000000000    0.9173000000000000 Si
   0.1547000000000000    0.1950000000000000    0.9173000000000000 Si
   0.6546999999999999    0.3050000000000000    0.9173000000000000 Si
   0.1547000000000000    0.8050000000000000    0.9173000000000000 Si
   0.3453000000000000    0.3050000000000000    0.0827000000000000 Si
   0.8453000000000001    0.8050000000000000    0.0827000000000000 Si
   0.3624000000000000    0.6957000000000000    0.7076000000000000 Si
   0.8624000000000001    0.1957000000000000    0.7076000000000000 Si
   0.6375999999999999    0.6957000000000000    0.2924000000000000 Si
   0.1376000000000000    0.1957000000000000    0.2924000000000000 Si
   0.6375999999999999    0.3043000000000000    0.2924000000000000 Si
   0.1376000000000000    0.8043000000000000    0.2924000000000000 Si
   0.3624000000000000    0.3043000000000000    0.7076000000000000 Si
   0.8624000000000001    0.8043000000000000    0.7076000000000000 Si
   0.2660000000000000    0.0000000000000000    0.7847000000000000 Si
   0.7660000000000000    0.5000000000000000    0.7847000000000000 Si
   0.7340000000000000    0.0000000000000000    0.2153000000000000 Si
   0.2340000000000000    0.5000000000000000    0.2153000000000000 Si
   0.2247000000000000    0.5000000000000000    0.8270000000000000 Si
   0.7753000000000000    0.5000000000000000    0.1730000000000000 Si
   0.2753000000000000    0.0000000000000000    0.1730000000000000 Si
   0.7247000000000000    0.0000000000000000    0.8270000000000000 Si
   0.3046000000000000    0.5000000000000000    0.6936000000000000 Si
   0.6954000000000000    0.5000000000000000    0.3064000000000000 Si
   0.1954000000000000    0.0000000000000000    0.3064000000000000 Si
   0.8046000000000000    0.0000000000000000    0.6936000000000000 Si
   0.2278000000000000    0.5000000000000000    0.4612000000000000 Si
   0.7722000000000000    0.5000000000000000    0.5387999999999999 Si
   0.2722000000000000    0.0000000000000000    0.5387999999999999 Si
   0.7278000000000000    0.0000000000000000    0.4612000000000000 Si
   0.2921000000000000    0.5000000000000000    0.0536000000000000 Si
   0.7079000000000000    0.5000000000000000    0.9464000000000000 Si
   0.2079000000000000    0.0000000000000000    0.9464000000000000 Si
   0.7921000000000000    0.0000000000000000    0.0536000000000000 Si
   0.3852532900000000    0.8537692800000000    0.5424077300000000 H
   0.4314007100000000    0.8218107700000000    0.4802872500000000 H
   0.4188916900000000    0.7470631000000000    0.5844021100000000 H
   0.4942685600000000    0.8518535000000000    0.6512682900000000 H
   0.4581945300000000    0.9537964799999999    0.6214281200000000 H
   0.5260796300000000    0.8839048100000000    0.8421480099999999 H
   0.5144736900000000    0.8826649100000000    0.0312016400000000 H
   0.4340566700000000    0.8642585100000000    0.0652344500000000 H
   0.3626057600000000    0.8639158700000000    0.9041090200000000 H
   0.3782624900000000    0.8344006899999999    0.7200872100000000 H
   0.3803570700000000    0.9851283900000000    0.6429835500000000 H
   0.3074723400000000    0.9310377800000000    0.7014568700000000 H
   0.3117111900000000    0.0574318400000000    0.6891714900000000 H
   0.3250955100000000    0.0046050700000000    0.8226658200000000 H
   0.3928820000000000    0.0619306600000000    0.9433268100000000 H
   0.4442800900000000    0.1969482300000000    0.0272408300000000 H
   0.4915532300000000    0.2851611400000000    0.9181030400000000 H
   0.4855554400000000    0.2382877600000000    0.7220336300000000 H
   0.4337220100000000    0.1037479400000000    0.6367869900000001 H
   0.4210780200000000    0.8219683800000001    0.5591012200000000 C
   0.4579760200000000    0.8777134200000000    0.6464253200000000 C
   0.4510462500000000    0.8784673800000000    0.7612056500000000 C
   0.4899745100000000    0.8817719000000001    0.8531968599999999 C
   0.4831511900000000    0.8797690600000000    0.9601871500000000 C
   0.4374597400000000    0.8707299900000000    0.9803668500000000 C
   0.3984107300000000    0.8702253400000000    0.8915456899999999 C
   0.4027439000000000    0.8828369100000000    0.7778266400000000 C
   0.3797751100000000    0.9882652700000000    0.7308145400000000 C
   0.3281099900000000    0.9946460200000000    0.7372650700000000 C
   0.4108134800000000    0.0706361600000000    0.7848588800000000 C
   0.4137090800000000    0.0989673200000000    0.8943881400000000 C
   0.4425984400000000    0.1755542400000000    0.9420538000000001 C
   0.4689856100000000    0.2251575200000000    0.8808674100000000 C
   0.4658255800000000    0.1986737700000000    0.7712680100000000 C
   0.4368861300000000    0.1221194700000000    0.7237349199999999 C
   0.4194000000000000    0.6797000000000000    0.7411000000000000 O
   0.9194000000000000    0.1797000000000000    0.7411000000000000 O
   0.5806000000000000    0.6797000000000000    0.2589000000000000 O
   0.0806000000000000    0.1797000000000000    0.2589000000000000 O
   0.5806000000000000    0.3203000000000000    0.2589000000000000 O
   0.0806000000000000    0.8203000000000000    0.2589000000000000 O
   0.4194000000000000    0.3203000000000000    0.7411000000000000 O
   0.9194000000000000    0.8203000000000000    0.7411000000000000 O
   0.5076000000000001    0.6290000000000000    0.8415000000000000 O
   0.0076000000000000    0.1290000000000000    0.8415000000000000 O
   0.4924000000000000    0.6290000000000000    0.1585000000000000 O
   0.9923999999999999    0.1290000000000000    0.1585000000000000 O
   0.4924000000000000    0.3710000000000000    0.1585000000000000 O
   0.9923999999999999    0.8710000000000000    0.1585000000000000 O
   0.5076000000000001    0.3710000000000000    0.8415000000000000 O
   0.0076000000000000    0.8710000000000000    0.8415000000000000 O
   0.4394000000000000    0.5000000000000000    0.7988000000000000 O
   0.9394000000000000    0.0000000000000000    0.7988000000000000 O
   0.5606000000000000    0.5000000000000000    0.2012000000000000 O
   0.0606000000000000    0.0000000000000000    0.2012000000000000 O
   0.4414000000000000    0.6310000000000000    0.9514000000000000 O
   0.9414000000000000    0.1310000000000000    0.9514000000000000 O
   0.5586000000000000    0.6310000000000000    0.0486000000000000 O
   0.0586000000000000    0.1310000000000000    0.0486000000000000 O
   0.5586000000000000    0.3690000000000000    0.0486000000000000 O
   0.0586000000000000    0.8690000000000000    0.0486000000000000 O
   0.4414000000000000    0.3690000000000000    0.9514000000000000 O
   0.9414000000000000    0.8690000000000000    0.9514000000000000 O
   0.4023000000000000    0.6808999999999999    0.1112000000000000 O
   0.9023000000000000    0.1809000000000000    0.1112000000000000 O
   0.5977000000000000    0.6808999999999999    0.8888000000000000 O
   0.0977000000000000    0.1809000000000000    0.8888000000000000 O
   0.5977000000000000    0.3191000000000000    0.8888000000000000 O
   0.0977000000000000    0.8191000000000001    0.8888000000000000 O
   0.4023000000000000    0.3191000000000000    0.1112000000000000 O
   0.9023000000000000    0.8191000000000001    0.1112000000000000 O
   0.4252000000000000    0.5000000000000000    0.0890000000000000 O
   0.9252000000000000    0.0000000000000000    0.0890000000000000 O
   0.5748000000000000    0.5000000000000000    0.9110000000000000 O
   0.0748000000000000    0.0000000000000000    0.9110000000000000 O
   0.7173000000000000    0.5000000000000000    0.8244000000000000 O
   0.2827000000000000    0.5000000000000000    0.1756000000000000 O
   0.2957000000000000    0.9060000000000000    0.8355000000000000 O
   0.7957000000000000    0.4060000000000000    0.8355000000000000 O
   0.7043000000000000    0.9060000000000000    0.1645000000000000 O
   0.2043000000000000    0.4060000000000000    0.1645000000000000 O
   0.7043000000000000    0.0940000000000000    0.1645000000000000 O
   0.2043000000000000    0.5940000000000000    0.1645000000000000 O
   0.2957000000000000    0.0940000000000000    0.8355000000000000 O
   0.7957000000000000    0.5940000000000000    0.8355000000000000 O
   0.7546000000000000    0.5000000000000000    0.6512000000000000 O
   0.2454000000000000    0.5000000000000000    0.3488000000000000 O
   0.1941000000000000    0.4048000000000000    0.7853000000000000 O
   0.6941000000000001    0.9048000000000000    0.7853000000000000 O
   0.8058999999999999    0.4048000000000000    0.2147000000000000 O
   0.3059000000000000    0.9048000000000000    0.2147000000000000 O
   0.8058999999999999    0.5952000000000000    0.2147000000000000 O
   0.3059000000000000    0.0952000000000000    0.2147000000000000 O
   0.1941000000000000    0.5952000000000000    0.7853000000000000 O
   0.6941000000000001    0.0952000000000000    0.7853000000000000 O
   0.2708000000000000    0.5000000000000000    0.7776000000000000 O
   0.7708000000000000    0.0000000000000000    0.7776000000000000 O
   0.7292000000000000    0.5000000000000000    0.2224000000000000 O
   0.2292000000000000    0.0000000000000000    0.2224000000000000 O
   0.2418000000000000    0.5000000000000000    0.9608000000000000 O
   0.7418000000000000    0.0000000000000000    0.9608000000000000 O
   0.7582000000000000    0.5000000000000000    0.0392000000000000 O
   0.2582000000000000    0.0000000000000000    0.0392000000000000 O
   0.2736000000000000    0.5000000000000000    0.5664000000000000 O
   0.7736000000000000    0.0000000000000000    0.5664000000000000 O
   0.7264000000000000    0.5000000000000000    0.4336000000000000 O
   0.2264000000000000    0.0000000000000000    0.4336000000000000 O
   0.3379000000000000    0.4062000000000000    0.7161000000000000 O
   0.8379000000000000    0.9062000000000000    0.7161000000000000 O
   0.6621000000000000    0.4062000000000000    0.2839000000000000 O
   0.1621000000000000    0.9062000000000000    0.2839000000000000 O
   0.6621000000000000    0.5938000000000000    0.2839000000000000 O
   0.1621000000000000    0.0938000000000000    0.2839000000000000 O
   0.3379000000000000    0.5938000000000000    0.7161000000000000 O
   0.8379000000000000    0.0938000000000000    0.7161000000000000 O
   0.1967000000000000    0.4055000000000000    0.4670000000000000 O
   0.6967000000000000    0.9055000000000000    0.4670000000000000 O
   0.8033000000000000    0.4055000000000000    0.5330000000000000 O
   0.3033000000000000    0.9055000000000000    0.5330000000000000 O
   0.8033000000000000    0.5945000000000000    0.5330000000000000 O
   0.3033000000000000    0.0945000000000000    0.5330000000000000 O
   0.1967000000000000    0.5945000000000000    0.4670000000000000 O
   0.6967000000000000    0.0945000000000000    0.4670000000000000 O
   0.3288000000000000    0.7254000000000000    0.1919000000000000 O
   0.8288000000000000    0.2254000000000000    0.1919000000000000 O
   0.6712000000000000    0.7254000000000000    0.8081000000000000 O
   0.1712000000000000    0.2254000000000000    0.8081000000000000 O
   0.6712000000000000    0.2746000000000000    0.8081000000000000 O
   0.1712000000000000    0.7746000000000000    0.8081000000000000 O
   0.3288000000000000    0.2746000000000000    0.1919000000000000 O
   0.8288000000000000    0.7746000000000000    0.1919000000000000 O
   0.2401000000000000    0.7693000000000000    0.1902000000000000 O
   0.7401000000000000    0.2693000000000000    0.1902000000000000 O
   0.7599000000000000    0.7693000000000000    0.8098000000000000 O
   0.2599000000000000    0.2693000000000000    0.8098000000000000 O
   0.7599000000000000    0.2307000000000000    0.8098000000000000 O
   0.2599000000000000    0.7307000000000000    0.8098000000000000 O
   0.2401000000000000    0.2307000000000000    0.1902000000000000 O
   0.7401000000000000    0.7307000000000000    0.1902000000000000 O
   0.3085000000000000    0.7830000000000000    0.3751000000000000 O
   0.8085000000000000    0.2830000000000000    0.3751000000000000 O
   0.6915000000000000    0.7830000000000000    0.6249000000000000 O
   0.1915000000000000    0.2830000000000000    0.6249000000000000 O
   0.6915000000000000    0.2170000000000000    0.6249000000000000 O
   0.1915000000000000    0.7170000000000000    0.6249000000000000 O
   0.3085000000000000    0.2170000000000000    0.3751000000000000 O
   0.8085000000000000    0.7170000000000000    0.3751000000000000 O
   0.3434000000000000    0.7376000000000000    0.5837000000000000 O
   0.8434000000000000    0.2376000000000000    0.5837000000000000 O
   0.6566000000000000    0.7376000000000000    0.4163000000000000 O
   0.1566000000000000    0.2376000000000000    0.4163000000000000 O
   0.6566000000000000    0.2624000000000000    0.4163000000000000 O
   0.1566000000000000    0.7624000000000000    0.4163000000000000 O
   0.3434000000000000    0.2624000000000000    0.5837000000000000 O
   0.8434000000000000    0.7624000000000000    0.5837000000000000 O
   0.2500000000000000    0.7500000000000000    0.5000000000000000 O
   0.7500000000000000    0.2500000000000000    0.5000000000000000 O
   0.7500000000000000    0.7500000000000000    0.5000000000000000 O
   0.2500000000000000    0.2500000000000000    0.5000000000000000 O
   0.3479000000000000    0.7670000000000000    0.7951000000000000 O
   0.8479000000000000    0.2670000000000000    0.7951000000000000 O
   0.6521000000000000    0.7670000000000000    0.2049000000000000 O
   0.1521000000000000    0.2670000000000000    0.2049000000000000 O
   0.6521000000000000    0.2330000000000000    0.2049000000000000 O
   0.1521000000000000    0.7330000000000000    0.2049000000000000 O
   0.3479000000000000    0.2330000000000000    0.7951000000000000 O
   0.8479000000000000    0.7330000000000000    0.7951000000000000 O
   0.3281000000000000    0.7753000000000000    0.9881000000000000 O
   0.8280999999999999    0.2753000000000000    0.9881000000000000 O
   0.6719000000000001    0.7753000000000000    0.0119000000000000 O
   0.1719000000000000    0.2753000000000000    0.0119000000000000 O
   0.6719000000000001    0.2247000000000000    0.0119000000000000 O
   0.1719000000000000    0.7247000000000000    0.0119000000000000 O
   0.3281000000000000    0.2247000000000000    0.9881000000000000 O
   0.8280999999999999    0.7247000000000000    0.9881000000000000 O
   0.3212000000000000    0.5943000000000001    0.0364000000000000 O
   0.8212000000000000    0.0943000000000000    0.0364000000000000 O
   0.6788000000000000    0.5943000000000001    0.9636000000000000 O
   0.1788000000000000    0.0943000000000000    0.9636000000000000 O
   0.6788000000000000    0.4057000000000000    0.9636000000000000 O
   0.1788000000000000    0.9056999999999999    0.9636000000000000 O
   0.3212000000000000    0.4057000000000000    0.0364000000000000 O
   0.8212000000000000    0.9056999999999999    0.0364000000000000 O
