Al1 Si75 H19 C16 O148
1.0
  28.0197390827175035    0.0000000000000000   -7.4607129509473289
   0.0000000000000022   13.9680000000000000    0.0000000000000009
   0.0000000000000000    0.0000000000000000   12.4489999999999998
Al Si H C O
1 75 19 16 148
direct
   0.4521000000000000    0.6099000000000000    0.8330000000000000 Al
   0.9520999999999999    0.1099000000000000    0.8330000000000000 Si
   0.5479000000000001    0.6099000000000000    0.1670000000000000 Si
   0.0479000000000000    0.1099000000000000    0.1670000000000000 Si
   0.5479000000000001    0.3901000000000000    0.1670000000000000 Si
   0.0479000000000000    0.8901000000000000    0.1670000000000000 Si
   0.4521000000000000    0.3901000000000000    0.8330000000000000 Si
   0.9520999999999999    0.8901000000000000    0.8330000000000000 Si
   0.4401000000000000    0.6099000000000000    0.0777000000000000 Si
   0.9401000000000000    0.1099000000000000    0.0777000000000000 Si
   0.5599000000000000    0.6099000000000000    0.9223000000000000 Si
   0.0599000000000000    0.1099000000000000    0.9223000000000000 Si
   0.5599000000000000    0.3901000000000000    0.9223000000000000 Si
   0.0599000000000000    0.8901000000000000    0.9223000000000000 Si
   0.4401000000000000    0.3901000000000000    0.0777000000000000 Si
   0.9401000000000000    0.8901000000000000    0.0777000000000000 Si
   0.2954000000000000    0.7954000000000000    0.2422000000000000 Si
   0.7954000000000000    0.2954000000000000    0.2422000000000000 Si
   0.7046000000000000    0.7954000000000000    0.7578000000000000 Si
   0.2046000000000000    0.2954000000000000    0.7578000000000000 Si
   0.7046000000000000    0.2046000000000000    0.7578000000000000 Si
   0.2046000000000000    0.7046000000000000    0.7578000000000000 Si
   0.2954000000000000    0.2046000000000000    0.2422000000000000 Si
   0.7954000000000000    0.7046000000000000    0.2422000000000000 Si
   0.3010000000000000    0.7941000000000000    0.4982000000000000 Si
   0.8010000000000000    0.2941000000000000    0.4982000000000000 Si
   0.6990000000000000    0.7941000000000000    0.5018000000000000 Si
   0.1990000000000000    0.2941000000000000    0.5018000000000000 Si
   0.6990000000000000    0.2059000000000000    0.5018000000000000 Si
   0.1990000000000000    0.7059000000000000    0.5018000000000000 Si
   0.3010000000000000    0.2059000000000000    0.4982000000000000 Si
   0.8010000000000000    0.7059000000000000    0.4982000000000000 Si
   0.3072000000000000    0.7938000000000000    0.8569000000000000 Si
   0.8072000000000000    0.2938000000000000    0.8569000000000000 Si
   0.6928000000000000    0.7938000000000000    0.1431000000000000 Si
   0.1928000000000000    0.2938000000000000    0.1431000000000000 Si
   0.6928000000000000    0.2062000000000000    0.1431000000000000 Si
   0.1928000000000000    0.7062000000000000    0.1431000000000000 Si
   0.3072000000000000    0.2062000000000000    0.8569000000000000 Si
   0.8072000000000000    0.7062000000000000    0.8569000000000000 Si
   0.3453000000000000    0.6950000000000000    0.0827000000000000 Si
   0.8453000000000001    0.1950000000000000    0.0827000000000000 Si
   0.6546999999999999    0.6950000000000000    0.9173000000000000 Si
   0.1547000000000000    0.1950000000000000    0.9173000000000000 Si
   0.6546999999999999    0.3050000000000000    0.9173000000000000 Si
   0.1547000000000000    0.8050000000000000    0.9173000000000000 Si
   0.3453000000000000    0.3050000000000000    0.0827000000000000 Si
   0.8453000000000001    0.8050000000000000    0.0827000000000000 Si
   0.3624000000000000    0.6957000000000000    0.7076000000000000 Si
   0.8624000000000001    0.1957000000000000    0.7076000000000000 Si
   0.6375999999999999    0.6957000000000000    0.2924000000000000 Si
   0.1376000000000000    0.1957000000000000    0.2924000000000000 Si
   0.6375999999999999    0.3043000000000000    0.2924000000000000 Si
   0.1376000000000000    0.8043000000000000    0.2924000000000000 Si
   0.3624000000000000    0.3043000000000000    0.7076000000000000 Si
   0.8624000000000001    0.8043000000000000    0.7076000000000000 Si
   0.2660000000000000    0.0000000000000000    0.7847000000000000 Si
   0.7660000000000000    0.5000000000000000    0.7847000000000000 Si
   0.7340000000000000    0.0000000000000000    0.2153000000000000 Si
   0.2340000000000000    0.5000000000000000    0.2153000000000000 Si
   0.2247000000000000    0.5000000000000000    0.8270000000000000 Si
   0.7753000000000000    0.5000000000000000    0.1730000000000000 Si
   0.2753000000000000    0.0000000000000000    0.1730000000000000 Si
   0.7247000000000000    0.0000000000000000    0.8270000000000000 Si
   0.3046000000000000    0.5000000000000000    0.6936000000000000 Si
   0.6954000000000000    0.5000000000000000    0.3064000000000000 Si
   0.1954000000000000    0.0000000000000000    0.3064000000000000 Si
   0.8046000000000000    0.0000000000000000    0.6936000000000000 Si
   0.2278000000000000    0.5000000000000000    0.4612000000000000 Si
   0.7722000000000000    0.5000000000000000    0.5387999999999999 Si
   0.2722000000000000    0.0000000000000000    0.5387999999999999 Si
   0.7278000000000000    0.0000000000000000    0.4612000000000000 Si
   0.2921000000000000    0.5000000000000000    0.0536000000000000 Si
   0.7079000000000000    0.5000000000000000    0.9464000000000000 Si
   0.2079000000000000    0.0000000000000000    0.9464000000000000 Si
   0.7921000000000000    0.0000000000000000    0.0536000000000000 Si
   0.6322816000000000    0.6777030300000000    0.6286631100000000 H
   0.6473458000000000    0.5549653400000000    0.6223937400000000 H
   0.5951314599999999    0.6016809100000000    0.5285351000000000 H
   0.5583832000000000    0.6330206100000000    0.6883423800000000 H
   0.6116272300000000    0.5948313400000000    0.7834802800000000 H
   0.6411911800000000    0.4204380500000000    0.7538169800000000 H
   0.6116504100000000    0.2555041500000000    0.7537689300000000 H
   0.5249871600000000    0.2168101300000000    0.7010723500000000 H
   0.4661361300000000    0.3484325900000000    0.6355208200000000 H
   0.4996781300000000    0.5106198000000000    0.6940403200000000 H
   0.5131185100000000    0.5716517600000000    0.5265366400000000 H
   0.5633279900000000    0.4479440300000000    0.4715399200000000 H
   0.5162984600000000    0.3627817700000000    0.4480082800000000 H
   0.5109390200000000    0.4656714600000000    0.3620218200000000 H
   0.4433625900000000    0.6308836100000000    0.5769762100000000 H
   0.3551447800000000    0.6354298200000000    0.5278711699999999 H
   0.3081300800000000    0.5052587700000000    0.4132690500000000 H
   0.3502091700000000    0.3709086400000000    0.3474232300000000 H
   0.4380796000000000    0.3656902200000000    0.3959002200000000 H
   0.6174742300000000    0.6051665000000001    0.6142967800000000 C
   0.5885740900000000    0.5831953300000000    0.6991080200000001 C
   0.5711568600000000    0.4820908700000000    0.6940653000000000 C
   0.6028990900000000    0.4067750200000000    0.7259743000000000 C
   0.5858253800000000    0.3132965200000000    0.7268522400000000 C
   0.5365563000000000    0.2905873800000000    0.6964707800000000 C
   0.5044796900000000    0.3628325800000000    0.6618576200000000 C
   0.5198666199999999    0.4617842400000000    0.6529136500000000 C
   0.5010522300000000    0.4968593200000000    0.5237324100000000 C
   0.5243243900000000    0.4396488000000000    0.4477007700000000 C
   0.4470520700000000    0.4974640900000000    0.4910854400000000 C
   0.4230071500000000    0.5729262800000000    0.5273026200000001 C
   0.3733596400000000    0.5758985300000000    0.4996511400000000 C
   0.3470317800000000    0.5030053400000000    0.4352327700000000 C
   0.3705728300000000    0.4277036400000000    0.3985460500000000 C
   0.4203460300000000    0.4248481600000000    0.4263397300000000 C
   0.4194000000000000    0.6797000000000000    0.7411000000000000 O
   0.9194000000000000    0.1797000000000000    0.7411000000000000 O
   0.5806000000000000    0.6797000000000000    0.2589000000000000 O
   0.0806000000000000    0.1797000000000000    0.2589000000000000 O
   0.5806000000000000    0.3203000000000000    0.2589000000000000 O
   0.0806000000000000    0.8203000000000000    0.2589000000000000 O
   0.4194000000000000    0.3203000000000000    0.7411000000000000 O
   0.9194000000000000    0.8203000000000000    0.7411000000000000 O
   0.5076000000000001    0.6290000000000000    0.8415000000000000 O
   0.0076000000000000    0.1290000000000000    0.8415000000000000 O
   0.4924000000000000    0.6290000000000000    0.1585000000000000 O
   0.9923999999999999    0.1290000000000000    0.1585000000000000 O
   0.4924000000000000    0.3710000000000000    0.1585000000000000 O
   0.9923999999999999    0.8710000000000000    0.1585000000000000 O
   0.5076000000000001    0.3710000000000000    0.8415000000000000 O
   0.0076000000000000    0.8710000000000000    0.8415000000000000 O
   0.4394000000000000    0.5000000000000000    0.7988000000000000 O
   0.9394000000000000    0.0000000000000000    0.7988000000000000 O
   0.5606000000000000    0.5000000000000000    0.2012000000000000 O
   0.0606000000000000    0.0000000000000000    0.2012000000000000 O
   0.4414000000000000    0.6310000000000000    0.9514000000000000 O
   0.9414000000000000    0.1310000000000000    0.9514000000000000 O
   0.5586000000000000    0.6310000000000000    0.0486000000000000 O
   0.0586000000000000    0.1310000000000000    0.0486000000000000 O
   0.5586000000000000    0.3690000000000000    0.0486000000000000 O
   0.0586000000000000    0.8690000000000000    0.0486000000000000 O
   0.4414000000000000    0.3690000000000000    0.9514000000000000 O
   0.9414000000000000    0.8690000000000000    0.9514000000000000 O
   0.4023000000000000    0.6808999999999999    0.1112000000000000 O
   0.9023000000000000    0.1809000000000000    0.1112000000000000 O
   0.5977000000000000    0.6808999999999999    0.8888000000000000 O
   0.0977000000000000    0.1809000000000000    0.8888000000000000 O
   0.5977000000000000    0.3191000000000000    0.8888000000000000 O
   0.0977000000000000    0.8191000000000001    0.8888000000000000 O
   0.4023000000000000    0.3191000000000000    0.1112000000000000 O
   0.9023000000000000    0.8191000000000001    0.1112000000000000 O
   0.4252000000000000    0.5000000000000000    0.0890000000000000 O
   0.9252000000000000    0.0000000000000000    0.0890000000000000 O
   0.5748000000000000    0.5000000000000000    0.9110000000000000 O
   0.0748000000000000    0.0000000000000000    0.9110000000000000 O
   0.7173000000000000    0.5000000000000000    0.8244000000000000 O
   0.2827000000000000    0.5000000000000000    0.1756000000000000 O
   0.2957000000000000    0.9060000000000000    0.8355000000000000 O
   0.7957000000000000    0.4060000000000000    0.8355000000000000 O
   0.7043000000000000    0.9060000000000000    0.1645000000000000 O
   0.2043000000000000    0.4060000000000000    0.1645000000000000 O
   0.7043000000000000    0.0940000000000000    0.1645000000000000 O
   0.2043000000000000    0.5940000000000000    0.1645000000000000 O
   0.2957000000000000    0.0940000000000000    0.8355000000000000 O
   0.7957000000000000    0.5940000000000000    0.8355000000000000 O
   0.7546000000000000    0.5000000000000000    0.6512000000000000 O
   0.2454000000000000    0.5000000000000000    0.3488000000000000 O
   0.1941000000000000    0.4048000000000000    0.7853000000000000 O
   0.6941000000000001    0.9048000000000000    0.7853000000000000 O
   0.8058999999999999    0.4048000000000000    0.2147000000000000 O
   0.3059000000000000    0.9048000000000000    0.2147000000000000 O
   0.8058999999999999    0.5952000000000000    0.2147000000000000 O
   0.3059000000000000    0.0952000000000000    0.2147000000000000 O
   0.1941000000000000    0.5952000000000000    0.7853000000000000 O
   0.6941000000000001    0.0952000000000000    0.7853000000000000 O
   0.2708000000000000    0.5000000000000000    0.7776000000000000 O
   0.7708000000000000    0.0000000000000000    0.7776000000000000 O
   0.7292000000000000    0.5000000000000000    0.2224000000000000 O
   0.2292000000000000    0.0000000000000000    0.2224000000000000 O
   0.2418000000000000    0.5000000000000000    0.9608000000000000 O
   0.7418000000000000    0.0000000000000000    0.9608000000000000 O
   0.7582000000000000    0.5000000000000000    0.0392000000000000 O
   0.2582000000000000    0.0000000000000000    0.0392000000000000 O
   0.2736000000000000    0.5000000000000000    0.5664000000000000 O
   0.7736000000000000    0.0000000000000000    0.5664000000000000 O
   0.7264000000000000    0.5000000000000000    0.4336000000000000 O
   0.2264000000000000    0.0000000000000000    0.4336000000000000 O
   0.3379000000000000    0.4062000000000000    0.7161000000000000 O
   0.8379000000000000    0.9062000000000000    0.7161000000000000 O
   0.6621000000000000    0.4062000000000000    0.2839000000000000 O
   0.1621000000000000    0.9062000000000000    0.2839000000000000 O
   0.6621000000000000    0.5938000000000000    0.2839000000000000 O
   0.1621000000000000    0.0938000000000000    0.2839000000000000 O
   0.3379000000000000    0.5938000000000000    0.7161000000000000 O
   0.8379000000000000    0.0938000000000000    0.7161000000000000 O
   0.1967000000000000    0.4055000000000000    0.4670000000000000 O
   0.6967000000000000    0.9055000000000000    0.4670000000000000 O
   0.8033000000000000    0.4055000000000000    0.5330000000000000 O
   0.3033000000000000    0.9055000000000000    0.5330000000000000 O
   0.8033000000000000    0.5945000000000000    0.5330000000000000 O
   0.3033000000000000    0.0945000000000000    0.5330000000000000 O
   0.1967000000000000    0.5945000000000000    0.4670000000000000 O
   0.6967000000000000    0.0945000000000000    0.4670000000000000 O
   0.3288000000000000    0.7254000000000000    0.1919000000000000 O
   0.8288000000000000    0.2254000000000000    0.1919000000000000 O
   0.6712000000000000    0.7254000000000000    0.8081000000000000 O
   0.1712000000000000    0.2254000000000000    0.8081000000000000 O
   0.6712000000000000    0.2746000000000000    0.8081000000000000 O
   0.1712000000000000    0.7746000000000000    0.8081000000000000 O
   0.3288000000000000    0.2746000000000000    0.1919000000000000 O
   0.8288000000000000    0.7746000000000000    0.1919000000000000 O
   0.2401000000000000    0.7693000000000000    0.1902000000000000 O
   0.7401000000000000    0.2693000000000000    0.1902000000000000 O
   0.7599000000000000    0.7693000000000000    0.8098000000000000 O
   0.2599000000000000    0.2693000000000000    0.8098000000000000 O
   0.7599000000000000    0.2307000000000000    0.8098000000000000 O
   0.2599000000000000    0.7307000000000000    0.8098000000000000 O
   0.2401000000000000    0.2307000000000000    0.1902000000000000 O
   0.7401000000000000    0.7307000000000000    0.1902000000000000 O
   0.3085000000000000    0.7830000000000000    0.3751000000000000 O
   0.8085000000000000    0.2830000000000000    0.3751000000000000 O
   0.6915000000000000    0.7830000000000000    0.6249000000000000 O
   0.1915000000000000    0.2830000000000000    0.6249000000000000 O
   0.6915000000000000    0.2170000000000000    0.6249000000000000 O
   0.1915000000000000    0.7170000000000000    0.6249000000000000 O
   0.3085000000000000    0.2170000000000000    0.3751000000000000 O
   0.8085000000000000    0.7170000000000000    0.3751000000000000 O
   0.3434000000000000    0.7376000000000000    0.5837000000000000 O
   0.8434000000000000    0.2376000000000000    0.5837000000000000 O
   0.6566000000000000    0.7376000000000000    0.4163000000000000 O
   0.1566000000000000    0.2376000000000000    0.4163000000000000 O
   0.6566000000000000    0.2624000000000000    0.4163000000000000 O
   0.1566000000000000    0.7624000000000000    0.4163000000000000 O
   0.3434000000000000    0.2624000000000000    0.5837000000000000 O
   0.8434000000000000    0.7624000000000000    0.5837000000000000 O
   0.2500000000000000    0.7500000000000000    0.5000000000000000 O
   0.7500000000000000    0.2500000000000000    0.5000000000000000 O
   0.7500000000000000    0.7500000000000000    0.5000000000000000 O
   0.2500000000000000    0.2500000000000000    0.5000000000000000 O
   0.3479000000000000    0.7670000000000000    0.7951000000000000 O
   0.8479000000000000    0.2670000000000000    0.7951000000000000 O
   0.6521000000000000    0.7670000000000000    0.2049000000000000 O
   0.1521000000000000    0.2670000000000000    0.2049000000000000 O
   0.6521000000000000    0.2330000000000000    0.2049000000000000 O
   0.1521000000000000    0.7330000000000000    0.2049000000000000 O
   0.3479000000000000    0.2330000000000000    0.7951000000000000 O
   0.8479000000000000    0.7330000000000000    0.7951000000000000 O
   0.3281000000000000    0.7753000000000000    0.9881000000000000 O
   0.8280999999999999    0.2753000000000000    0.9881000000000000 O
   0.6719000000000001    0.7753000000000000    0.0119000000000000 O
   0.1719000000000000    0.2753000000000000    0.0119000000000000 O
   0.6719000000000001    0.2247000000000000    0.0119000000000000 O
   0.1719000000000000    0.7247000000000000    0.0119000000000000 O
   0.3281000000000000    0.2247000000000000    0.9881000000000000 O
   0.8280999999999999    0.7247000000000000    0.9881000000000000 O
   0.3212000000000000    0.5943000000000001    0.0364000000000000 O
   0.8212000000000000    0.0943000000000000    0.0364000000000000 O
   0.6788000000000000    0.5943000000000001    0.9636000000000000 O
   0.1788000000000000    0.0943000000000000    0.9636000000000000 O
   0.6788000000000000    0.4057000000000000    0.9636000000000000 O
   0.1788000000000000    0.9056999999999999    0.9636000000000000 O
   0.3212000000000000    0.4057000000000000    0.0364000000000000 O
   0.8212000000000000    0.9056999999999999    0.0364000000000000 O
