Al1 Si75 H19 C16 O148
1.0
  28.0197390827175035    0.0000000000000000   -7.4607129509473289
   0.0000000000000022   13.9680000000000000    0.0000000000000009
   0.0000000000000000    0.0000000000000000   12.4489999999999998
Al Si H C O
1 75 19 16 148
direct
   0.4521000000000000    0.6099000000000000    0.8330000000000000 Al
   0.9520999999999999    0.1099000000000000    0.8330000000000000 Si
   0.5479000000000001    0.6099000000000000    0.1670000000000000 Si
   0.0479000000000000    0.1099000000000000    0.1670000000000000 Si
   0.5479000000000001    0.3901000000000000    0.1670000000000000 Si
   0.0479000000000000    0.8901000000000000    0.1670000000000000 Si
   0.4521000000000000    0.3901000000000000    0.8330000000000000 Si
   0.9520999999999999    0.8901000000000000    0.8330000000000000 Si
   0.4401000000000000    0.6099000000000000    0.0777000000000000 Si
   0.9401000000000000    0.1099000000000000    0.0777000000000000 Si
   0.5599000000000000    0.6099000000000000    0.9223000000000000 Si
   0.0599000000000000    0.1099000000000000    0.9223000000000000 Si
   0.5599000000000000    0.3901000000000000    0.9223000000000000 Si
   0.0599000000000000    0.8901000000000000    0.9223000000000000 Si
   0.4401000000000000    0.3901000000000000    0.0777000000000000 Si
   0.9401000000000000    0.8901000000000000    0.0777000000000000 Si
   0.2954000000000000    0.7954000000000000    0.2422000000000000 Si
   0.7954000000000000    0.2954000000000000    0.2422000000000000 Si
   0.7046000000000000    0.7954000000000000    0.7578000000000000 Si
   0.2046000000000000    0.2954000000000000    0.7578000000000000 Si
   0.7046000000000000    0.2046000000000000    0.7578000000000000 Si
   0.2046000000000000    0.7046000000000000    0.7578000000000000 Si
   0.2954000000000000    0.2046000000000000    0.2422000000000000 Si
   0.7954000000000000    0.7046000000000000    0.2422000000000000 Si
   0.3010000000000000    0.7941000000000000    0.4982000000000000 Si
   0.8010000000000000    0.2941000000000000    0.4982000000000000 Si
   0.6990000000000000    0.7941000000000000    0.5018000000000000 Si
   0.1990000000000000    0.2941000000000000    0.5018000000000000 Si
   0.6990000000000000    0.2059000000000000    0.5018000000000000 Si
   0.1990000000000000    0.7059000000000000    0.5018000000000000 Si
   0.3010000000000000    0.2059000000000000    0.4982000000000000 Si
   0.8010000000000000    0.7059000000000000    0.4982000000000000 Si
   0.3072000000000000    0.7938000000000000    0.8569000000000000 Si
   0.8072000000000000    0.2938000000000000    0.8569000000000000 Si
   0.6928000000000000    0.7938000000000000    0.1431000000000000 Si
   0.1928000000000000    0.2938000000000000    0.1431000000000000 Si
   0.6928000000000000    0.2062000000000000    0.1431000000000000 Si
   0.1928000000000000    0.7062000000000000    0.1431000000000000 Si
   0.3072000000000000    0.2062000000000000    0.8569000000000000 Si
   0.8072000000000000    0.7062000000000000    0.8569000000000000 Si
   0.3453000000000000    0.6950000000000000    0.0827000000000000 Si
   0.8453000000000001    0.1950000000000000    0.0827000000000000 Si
   0.6546999999999999    0.6950000000000000    0.9173000000000000 Si
   0.1547000000000000    0.1950000000000000    0.9173000000000000 Si
   0.6546999999999999    0.3050000000000000    0.9173000000000000 Si
   0.1547000000000000    0.8050000000000000    0.9173000000000000 Si
   0.3453000000000000    0.3050000000000000    0.0827000000000000 Si
   0.8453000000000001    0.8050000000000000    0.0827000000000000 Si
   0.3624000000000000    0.6957000000000000    0.7076000000000000 Si
   0.8624000000000001    0.1957000000000000    0.7076000000000000 Si
   0.6375999999999999    0.6957000000000000    0.2924000000000000 Si
   0.1376000000000000    0.1957000000000000    0.2924000000000000 Si
   0.6375999999999999    0.3043000000000000    0.2924000000000000 Si
   0.1376000000000000    0.8043000000000000    0.2924000000000000 Si
   0.3624000000000000    0.3043000000000000    0.7076000000000000 Si
   0.8624000000000001    0.8043000000000000    0.7076000000000000 Si
   0.2660000000000000    0.0000000000000000    0.7847000000000000 Si
   0.7660000000000000    0.5000000000000000    0.7847000000000000 Si
   0.7340000000000000    0.0000000000000000    0.2153000000000000 Si
   0.2340000000000000    0.5000000000000000    0.2153000000000000 Si
   0.2247000000000000    0.5000000000000000    0.8270000000000000 Si
   0.7753000000000000    0.5000000000000000    0.1730000000000000 Si
   0.2753000000000000    0.0000000000000000    0.1730000000000000 Si
   0.7247000000000000    0.0000000000000000    0.8270000000000000 Si
   0.3046000000000000    0.5000000000000000    0.6936000000000000 Si
   0.6954000000000000    0.5000000000000000    0.3064000000000000 Si
   0.1954000000000000    0.0000000000000000    0.3064000000000000 Si
   0.8046000000000000    0.0000000000000000    0.6936000000000000 Si
   0.2278000000000000    0.5000000000000000    0.4612000000000000 Si
   0.7722000000000000    0.5000000000000000    0.5387999999999999 Si
   0.2722000000000000    0.0000000000000000    0.5387999999999999 Si
   0.7278000000000000    0.0000000000000000    0.4612000000000000 Si
   0.2921000000000000    0.5000000000000000    0.0536000000000000 Si
   0.7079000000000000    0.5000000000000000    0.9464000000000000 Si
   0.2079000000000000    0.0000000000000000    0.9464000000000000 Si
   0.7921000000000000    0.0000000000000000    0.0536000000000000 Si
   0.6199023600000000    0.6392917000000000    0.6514194500000000 H
   0.6349665500000000    0.5165540000000000    0.6451500800000000 H
   0.5827522100000000    0.5632695700000000    0.5512914400000000 H
   0.5460039500000000    0.5946092700000000    0.7110987200000000 H
   0.5992479800000000    0.5564200100000000    0.8062366200000000 H
   0.6288119300000000    0.3820267200000000    0.7765733200000000 H
   0.5992711600000000    0.2170928200000000    0.7765252800000000 H
   0.5126079200000000    0.1783987900000000    0.7238286900000001 H
   0.4537568900000000    0.3100212600000000    0.6582771600000000 H
   0.4872988800000000    0.4722084700000000    0.7167966600000000 H
   0.5007392600000000    0.5332404300000000    0.5492929800000000 H
   0.5509487500000000    0.4095326900000000    0.4942962600000000 H
   0.5039192100000000    0.3243704400000000    0.4707646200000000 H
   0.4985597800000000    0.4272601300000000    0.3847781600000000 H
   0.4309833400000000    0.5924722800000000    0.5997325500000000 H
   0.3427655300000000    0.5970184900000000    0.5506275100000000 H
   0.2957508400000000    0.4668474400000000    0.4360253900000000 H
   0.3378299200000000    0.3324973100000000    0.3701795700000000 H
   0.4257003500000000    0.3272788900000000    0.4186565600000000 H
   0.6050949799999999    0.5667551700000000    0.6370531200000000 C
   0.5761948400000000    0.5447840000000000    0.7218643600000000 C
   0.5587776200000000    0.4436795400000000    0.7168216400000000 C
   0.5905198400000000    0.3683636900000000    0.7487306400000000 C
   0.5734461300000000    0.2748851900000000    0.7496085900000000 C
   0.5241770600000000    0.2521760500000000    0.7192271200000000 C
   0.4921004400000000    0.3244212500000000    0.6846139600000000 C
   0.5074873700000000    0.4233729000000000    0.6756699900000001 C
   0.4886729800000000    0.4584479900000000    0.5464887500000000 C
   0.5119451400000000    0.4012374700000000    0.4704571100000000 C
   0.4346728300000000    0.4590527600000000    0.5138417800000000 C
   0.4106279000000000    0.5345149500000000    0.5500589600000000 C
   0.3609803900000000    0.5374872000000001    0.5224074800000000 C
   0.3346525300000000    0.4645940100000000    0.4579891100000000 C
   0.3581935900000000    0.3892923100000000    0.4213023900000000 C
   0.4079667900000000    0.3864368300000000    0.4490960700000000 C
   0.4194000000000000    0.6797000000000000    0.7411000000000000 O
   0.9194000000000000    0.1797000000000000    0.7411000000000000 O
   0.5806000000000000    0.6797000000000000    0.2589000000000000 O
   0.0806000000000000    0.1797000000000000    0.2589000000000000 O
   0.5806000000000000    0.3203000000000000    0.2589000000000000 O
   0.0806000000000000    0.8203000000000000    0.2589000000000000 O
   0.4194000000000000    0.3203000000000000    0.7411000000000000 O
   0.9194000000000000    0.8203000000000000    0.7411000000000000 O
   0.5076000000000001    0.6290000000000000    0.8415000000000000 O
   0.0076000000000000    0.1290000000000000    0.8415000000000000 O
   0.4924000000000000    0.6290000000000000    0.1585000000000000 O
   0.9923999999999999    0.1290000000000000    0.1585000000000000 O
   0.4924000000000000    0.3710000000000000    0.1585000000000000 O
   0.9923999999999999    0.8710000000000000    0.1585000000000000 O
   0.5076000000000001    0.3710000000000000    0.8415000000000000 O
   0.0076000000000000    0.8710000000000000    0.8415000000000000 O
   0.4394000000000000    0.5000000000000000    0.7988000000000000 O
   0.9394000000000000    0.0000000000000000    0.7988000000000000 O
   0.5606000000000000    0.5000000000000000    0.2012000000000000 O
   0.0606000000000000    0.0000000000000000    0.2012000000000000 O
   0.4414000000000000    0.6310000000000000    0.9514000000000000 O
   0.9414000000000000    0.1310000000000000    0.9514000000000000 O
   0.5586000000000000    0.6310000000000000    0.0486000000000000 O
   0.0586000000000000    0.1310000000000000    0.0486000000000000 O
   0.5586000000000000    0.3690000000000000    0.0486000000000000 O
   0.0586000000000000    0.8690000000000000    0.0486000000000000 O
   0.4414000000000000    0.3690000000000000    0.9514000000000000 O
   0.9414000000000000    0.8690000000000000    0.9514000000000000 O
   0.4023000000000000    0.6808999999999999    0.1112000000000000 O
   0.9023000000000000    0.1809000000000000    0.1112000000000000 O
   0.5977000000000000    0.6808999999999999    0.8888000000000000 O
   0.0977000000000000    0.1809000000000000    0.8888000000000000 O
   0.5977000000000000    0.3191000000000000    0.8888000000000000 O
   0.0977000000000000    0.8191000000000001    0.8888000000000000 O
   0.4023000000000000    0.3191000000000000    0.1112000000000000 O
   0.9023000000000000    0.8191000000000001    0.1112000000000000 O
   0.4252000000000000    0.5000000000000000    0.0890000000000000 O
   0.9252000000000000    0.0000000000000000    0.0890000000000000 O
   0.5748000000000000    0.5000000000000000    0.9110000000000000 O
   0.0748000000000000    0.0000000000000000    0.9110000000000000 O
   0.7173000000000000    0.5000000000000000    0.8244000000000000 O
   0.2827000000000000    0.5000000000000000    0.1756000000000000 O
   0.2957000000000000    0.9060000000000000    0.8355000000000000 O
   0.7957000000000000    0.4060000000000000    0.8355000000000000 O
   0.7043000000000000    0.9060000000000000    0.1645000000000000 O
   0.2043000000000000    0.4060000000000000    0.1645000000000000 O
   0.7043000000000000    0.0940000000000000    0.1645000000000000 O
   0.2043000000000000    0.5940000000000000    0.1645000000000000 O
   0.2957000000000000    0.0940000000000000    0.8355000000000000 O
   0.7957000000000000    0.5940000000000000    0.8355000000000000 O
   0.7546000000000000    0.5000000000000000    0.6512000000000000 O
   0.2454000000000000    0.5000000000000000    0.3488000000000000 O
   0.1941000000000000    0.4048000000000000    0.7853000000000000 O
   0.6941000000000001    0.9048000000000000    0.7853000000000000 O
   0.8058999999999999    0.4048000000000000    0.2147000000000000 O
   0.3059000000000000    0.9048000000000000    0.2147000000000000 O
   0.8058999999999999    0.5952000000000000    0.2147000000000000 O
   0.3059000000000000    0.0952000000000000    0.2147000000000000 O
   0.1941000000000000    0.5952000000000000    0.7853000000000000 O
   0.6941000000000001    0.0952000000000000    0.7853000000000000 O
   0.2708000000000000    0.5000000000000000    0.7776000000000000 O
   0.7708000000000000    0.0000000000000000    0.7776000000000000 O
   0.7292000000000000    0.5000000000000000    0.2224000000000000 O
   0.2292000000000000    0.0000000000000000    0.2224000000000000 O
   0.2418000000000000    0.5000000000000000    0.9608000000000000 O
   0.7418000000000000    0.0000000000000000    0.9608000000000000 O
   0.7582000000000000    0.5000000000000000    0.0392000000000000 O
   0.2582000000000000    0.0000000000000000    0.0392000000000000 O
   0.2736000000000000    0.5000000000000000    0.5664000000000000 O
   0.7736000000000000    0.0000000000000000    0.5664000000000000 O
   0.7264000000000000    0.5000000000000000    0.4336000000000000 O
   0.2264000000000000    0.0000000000000000    0.4336000000000000 O
   0.3379000000000000    0.4062000000000000    0.7161000000000000 O
   0.8379000000000000    0.9062000000000000    0.7161000000000000 O
   0.6621000000000000    0.4062000000000000    0.2839000000000000 O
   0.1621000000000000    0.9062000000000000    0.2839000000000000 O
   0.6621000000000000    0.5938000000000000    0.2839000000000000 O
   0.1621000000000000    0.0938000000000000    0.2839000000000000 O
   0.3379000000000000    0.5938000000000000    0.7161000000000000 O
   0.8379000000000000    0.0938000000000000    0.7161000000000000 O
   0.1967000000000000    0.4055000000000000    0.4670000000000000 O
   0.6967000000000000    0.9055000000000000    0.4670000000000000 O
   0.8033000000000000    0.4055000000000000    0.5330000000000000 O
   0.3033000000000000    0.9055000000000000    0.5330000000000000 O
   0.8033000000000000    0.5945000000000000    0.5330000000000000 O
   0.3033000000000000    0.0945000000000000    0.5330000000000000 O
   0.1967000000000000    0.5945000000000000    0.4670000000000000 O
   0.6967000000000000    0.0945000000000000    0.4670000000000000 O
   0.3288000000000000    0.7254000000000000    0.1919000000000000 O
   0.8288000000000000    0.2254000000000000    0.1919000000000000 O
   0.6712000000000000    0.7254000000000000    0.8081000000000000 O
   0.1712000000000000    0.2254000000000000    0.8081000000000000 O
   0.6712000000000000    0.2746000000000000    0.8081000000000000 O
   0.1712000000000000    0.7746000000000000    0.8081000000000000 O
   0.3288000000000000    0.2746000000000000    0.1919000000000000 O
   0.8288000000000000    0.7746000000000000    0.1919000000000000 O
   0.2401000000000000    0.7693000000000000    0.1902000000000000 O
   0.7401000000000000    0.2693000000000000    0.1902000000000000 O
   0.7599000000000000    0.7693000000000000    0.8098000000000000 O
   0.2599000000000000    0.2693000000000000    0.8098000000000000 O
   0.7599000000000000    0.2307000000000000    0.8098000000000000 O
   0.2599000000000000    0.7307000000000000    0.8098000000000000 O
   0.2401000000000000    0.2307000000000000    0.1902000000000000 O
   0.7401000000000000    0.7307000000000000    0.1902000000000000 O
   0.3085000000000000    0.7830000000000000    0.3751000000000000 O
   0.8085000000000000    0.2830000000000000    0.3751000000000000 O
   0.6915000000000000    0.7830000000000000    0.6249000000000000 O
   0.1915000000000000    0.2830000000000000    0.6249000000000000 O
   0.6915000000000000    0.2170000000000000    0.6249000000000000 O
   0.1915000000000000    0.7170000000000000    0.6249000000000000 O
   0.3085000000000000    0.2170000000000000    0.3751000000000000 O
   0.8085000000000000    0.7170000000000000    0.3751000000000000 O
   0.3434000000000000    0.7376000000000000    0.5837000000000000 O
   0.8434000000000000    0.2376000000000000    0.5837000000000000 O
   0.6566000000000000    0.7376000000000000    0.4163000000000000 O
   0.1566000000000000    0.2376000000000000    0.4163000000000000 O
   0.6566000000000000    0.2624000000000000    0.4163000000000000 O
   0.1566000000000000    0.7624000000000000    0.4163000000000000 O
   0.3434000000000000    0.2624000000000000    0.5837000000000000 O
   0.8434000000000000    0.7624000000000000    0.5837000000000000 O
   0.2500000000000000    0.7500000000000000    0.5000000000000000 O
   0.7500000000000000    0.2500000000000000    0.5000000000000000 O
   0.7500000000000000    0.7500000000000000    0.5000000000000000 O
   0.2500000000000000    0.2500000000000000    0.5000000000000000 O
   0.3479000000000000    0.7670000000000000    0.7951000000000000 O
   0.8479000000000000    0.2670000000000000    0.7951000000000000 O
   0.6521000000000000    0.7670000000000000    0.2049000000000000 O
   0.1521000000000000    0.2670000000000000    0.2049000000000000 O
   0.6521000000000000    0.2330000000000000    0.2049000000000000 O
   0.1521000000000000    0.7330000000000000    0.2049000000000000 O
   0.3479000000000000    0.2330000000000000    0.7951000000000000 O
   0.8479000000000000    0.7330000000000000    0.7951000000000000 O
   0.3281000000000000    0.7753000000000000    0.9881000000000000 O
   0.8280999999999999    0.2753000000000000    0.9881000000000000 O
   0.6719000000000001    0.7753000000000000    0.0119000000000000 O
   0.1719000000000000    0.2753000000000000    0.0119000000000000 O
   0.6719000000000001    0.2247000000000000    0.0119000000000000 O
   0.1719000000000000    0.7247000000000000    0.0119000000000000 O
   0.3281000000000000    0.2247000000000000    0.9881000000000000 O
   0.8280999999999999    0.7247000000000000    0.9881000000000000 O
   0.3212000000000000    0.5943000000000001    0.0364000000000000 O
   0.8212000000000000    0.0943000000000000    0.0364000000000000 O
   0.6788000000000000    0.5943000000000001    0.9636000000000000 O
   0.1788000000000000    0.0943000000000000    0.9636000000000000 O
   0.6788000000000000    0.4057000000000000    0.9636000000000000 O
   0.1788000000000000    0.9056999999999999    0.9636000000000000 O
   0.3212000000000000    0.4057000000000000    0.0364000000000000 O
   0.8212000000000000    0.9056999999999999    0.0364000000000000 O
