   Al     C     H     O     Si          
   1.0000000000000000     
    29.4686241149902344   -0.0699228197336197   -0.0508829317986965
    -0.0335787981748581   13.9991369247436523   -0.0137711204588413
    -3.2760660648345947   -0.0040951701812446   12.0236673355102539
   Al   C    H    O    Si
     3    16    21   152    73
Direct
  0.4456363793456729  0.6112735641175455  0.0888280985260349
  0.4491161373984646  0.3968010828593933  0.8207602134436135
  0.7775868152075278  0.4888457946419786  0.5402199255583623
  0.4775508705542464  0.5288091596151765  0.5266960215465765
  0.4558385445727834  0.6089657742981921  0.4450213373892992
  0.4853538882804317  0.6980244868715466  0.4669606149119023
  0.5262505312826233  0.7041268856327552  0.4290239207923903
  0.5536583655783733  0.7860172455182912  0.4457141899253028
  0.5399090394801599  0.8662319306876760  0.4982443153200143
  0.4993619587260409  0.8597628574800886  0.5407734995025324
  0.4828188750167711  0.9518372380160585  0.5838072660933110
  0.5105528847539161  0.9726713117918374  0.7042505298053194
  0.4853692928427030  0.0303492861913108  0.5009361411758786
  0.5039977716301522  0.1207855051708796  0.5295936680824064
  0.5108996416628939  0.1839905628888454  0.4477067610803005
  0.4993349729601295  0.1587099519929794  0.3349758395148133
  0.4802530903893085  0.0687666179775617  0.3036735762907296
  0.4745488245127537  0.0024330574764655  0.3855024479192577
  0.4727645345803854  0.7765459057576342  0.5241463037435237
  0.5135632279611776  0.5129659063224887  0.5226923400371438
  0.4562446724366039  0.4634815411754610  0.5060939387655675
  0.4786695783169845  0.5483557663443859  0.6125165505752453
  0.4200576903031168  0.6243073182852893  0.4511879145812427
  0.4529475568139897  0.5851535587341813  0.3592700402182440
  0.5357374224072899  0.6439218074871046  0.3844182445287606
  0.5857271148098347  0.7890368517190147  0.4182545086624183
  0.5653606961395159  0.9243027721501454  0.5262044096517261
  0.4453658725483924  0.9414943299803705  0.5818588301732021
  0.5079789445314957  0.9112637560946505  0.7571392442291169
  0.4963025518254947  0.0350581008864121  0.7376597419474913
  0.5480108997131657  0.9855120725263408  0.7105901731055014
  0.5145611381932540  0.1425462960868895  0.6166049180899410
  0.5260670456952212  0.2544036126525834  0.4726103424421994
  0.5041149418097720  0.2098662410287054  0.2728730148144008
  0.4690771078596985  0.0484290761100135  0.2160162562702783
  0.5103434322247060  0.9353637776849828  0.4131104177432536
  0.4498235409340263  0.9429371554065533  0.3568071509019353
  0.4407906638662880  0.7719900189480474  0.5526612612852100
  0.5111148717563353  0.2861143314635006  0.7957099176648978
  0.6978642543443798  0.4186836513499141  0.4658844993848114
  0.4225715734654468  0.6904566284247092  0.7414244141243452
  0.9201249960032041  0.1812025458957258  0.7391821804799752
  0.5942863855769175  0.6640552932241142  0.2612862375387417
  0.0873767542655804  0.1746782237028040  0.2556898362157480
  0.5858233803168417  0.3088408474278885  0.2455563300451493
  0.0836468530311019  0.8151384037464039  0.2526693431914894
  0.4169133317673976  0.3165704942619505  0.7246472678587776
  0.9198130742877164  0.8225013321833673  0.7302508709226483
  0.5101738231117068  0.6561410147282651  0.8520846546778730
  0.0086143010680334  0.1447070083452013  0.8469311678661123
  0.5039255586501044  0.6447486637239395  0.1590431416968868
  0.9992240852852748  0.1427174269564880  0.1469703835461215
  0.4981506501080565  0.3462050521085299  0.1538312421358510
  0.9963691712326121  0.8507076336530641  0.1405479812776185
  0.5108527329997615  0.3493746796952453  0.8277783227013656
  0.0077359690556013  0.8548808398395289  0.8428328618930103
  0.4534423646055288  0.5117757339507431  0.7787284528887890
  0.9482002494997751  0.0009462217836210  0.7823831488007430
  0.5607471489087800  0.4916283609959342  0.2022827337268159
  0.0569345938868795  0.9954754885597229  0.2067898276742762
  0.4398900949242247  0.6195495750027330  0.9465391019463540
  0.9396716237483178  0.1166971171480397  0.9452607316666232
  0.5715398261504701  0.6156390886585290  0.0503387247323825
  0.0673144230250875  0.1127381345428707  0.0474650366484740
  0.5632165101786631  0.3717759555626437  0.0384106937399060
  0.0661246456095425  0.8801949492348156  0.0448895826541670
  0.4448251386205395  0.3813613273691003  0.9531186730832821
  0.9378974573485458  0.8818346100028884  0.9395207983338785
  0.4053708428033511  0.6874975787974396  0.1253014895801655
  0.9104518613923973  0.1796004771878357  0.1152130768168959
  0.5992212937092416  0.6787787067613099  0.8766153097724191
  0.0980313992234713  0.1814841140255298  0.8811681167476174
  0.6003113662016557  0.3214962690409472  0.8734297791040980
  0.0976397958731716  0.8169403293230640  0.8780816303768988
  0.4090055814457306  0.3079160560722514  0.1096070219366391
  0.9058933471946112  0.8177611267434576  0.1052437904906732
  0.4376374018419711  0.4923242485204581  0.1253368071354712
  0.9371666740713416  0.9975007477666864  0.1083974205030621
  0.5665178816191038  0.5008535881726446  0.8801506972053300
  0.0693173357473087 -0.0012215779752580  0.8797815292542491
  0.2205015922778857  0.0007317532120728  0.8229981296650845
  0.7241203064981231  0.5066561787511711  0.8301222406156269
  0.7887387057414182  0.0007312662080690  0.1728329425535362
  0.2835343306600627  0.4883926724176508  0.1760526045443715
  0.3006287254575017  0.9081782740894445  0.8426833998331641
  0.8017332820071417  0.4067058494521015  0.8593305798089693
  0.7107955834692864  0.9017583821472105  0.1517486509734650
  0.2025030188689121  0.3987465586945412  0.1706341001197479
  0.7072096544034098  0.0882098210971004  0.1477171947798770
  0.2041172610383913  0.5854409302794823  0.1494571897311037
  0.3006675151414714  0.0939588570341863  0.8340217408044951
  0.8044428248883876  0.5913442413999389  0.8231229108789849
  0.2577899771748756  0.9962271790508994  0.6519920120048942
  0.7591548413157453  0.4763230654415512  0.6591130338524986
  0.7468401925598156  0.0002017077427706  0.3387245326058845
  0.2463239935469726  0.5038044464038590  0.3446422270642078
  0.1961846121277436  0.4043570121975084  0.7784421988414477
  0.6973546555694513  0.9004428614217972  0.7893492782841478
  0.8143765796531824  0.3963923934512050  0.2087923683179374
  0.3025055154128357  0.9051638134916283  0.2243848636436674
  0.8117320615775038  0.5893416895583430  0.2266704501251442
  0.3100265736919078  0.0924919070039436  0.2142276341403975
  0.1998836505782354  0.5922579943118587  0.7869419308422169
  0.6997570138816841  0.0897354642554553  0.7701443352038371
  0.2749962939805931  0.4930592445298048  0.7703223012455673
  0.7746750528503662  0.9830940007041304  0.7665257181087709
  0.7431134435041783  0.4778524853457754  0.2527301594343127
  0.2298015534447155  0.0172522474927751  0.2303303817215289
  0.2484402825837484  0.4899188328641465  0.9580854202548066
  0.7485734238985438  1.0065832576817246  0.9546479785673362
  0.7582451915160201  0.5014192582170558  0.0513033678002388
  0.2568579003618086  0.9983089861404993  0.0427164068608278
  0.2770785163196532  0.5306555355014275  0.5605998931411602
  0.7727213574333753  0.0245892279588648  0.5560133621048876
  0.7174220841603812  0.4661971623545563  0.4407164358522094
  0.2279083158874582  0.9592183543062854  0.4361245975126739
  0.3336913748147963  0.4031777747197677  0.6787076611240852
  0.8377954722365156  0.9106541140952521  0.6744329661432319
  0.6590043637378840  0.4137786594081266  0.2525182070218987
  0.1627617834413677  0.9041621130246562  0.2596145986476238
  0.6815190981175594  0.5986130961051860  0.2911873498597738
  0.1678136069649138  0.0846864380935455  0.3289199004953846
  0.3462216725022105  0.5861394110309348  0.7296279294261306
  0.8390877380030253  0.0942324234636437  0.7227747222971475
  0.2042623117145254  0.4135544099529262  0.4813572222943204
  0.6966213443590741  0.9177644146983266  0.4653176687690336
  0.8124353518106370  0.3988526728511221  0.5126338024384501
  0.3111365521107354  0.8990414010050141  0.5457086567134374
  0.7911521590194706  0.5998170478655628  0.5015841777318293
  0.2971074595584277  0.0840634298651386  0.5075212701297771
  0.1949280133972067  0.6006444209568167  0.4539084276835904
  0.6943297323758492  0.1048798071743362  0.4405584433002829
  0.3312197614815012  0.7293248434313891  0.1974864048619204
  0.8359115018860558  0.2160101611338555  0.1862431350962613
  0.6699175569090263  0.7188559085514437  0.7924749662800101
  0.1677322936684641  0.2253980447414981  0.7951132469595102
  0.6711260674319812  0.2669174103127803  0.7957079783447437
  0.1704831405448751  0.7692113763984320  0.8037683279008547
  0.3407762929416639  0.2694703151047571  0.2017458687685002
  0.8373840005540737  0.7651482764571568  0.1911117473116118
  0.2406952397781648  0.7620813674278423  0.1897336019882114
  0.7462011742395862  0.2641633076491247  0.1640662284446120
  0.7598544059581014  0.7589002673023648  0.8102897511158730
  0.2585226161135597  0.2636324653691426  0.8148893859376406
  0.7616048921988063  0.2339985275724577  0.8042790216559210
  0.2604113792342648  0.7359021666242779  0.8065992598989798
  0.2488582825851308  0.2362080602435654  0.1633411114301445
  0.7457791625771389  0.7238912487064336  0.1646230719377450
  0.3084276684061165  0.7746667379100758  0.3787664170137725
  0.8084921571437436  0.2622822825422588  0.3606168849942231
  0.6933844238029030  0.7858084101920177  0.6190253682186272
  0.1932610504807387  0.2763922018900592  0.6201273802072078
  0.6930324781567343  0.2193945855991669  0.6137431129019105
  0.1899575104243964  0.7161692105543541  0.6220272390760393
  0.3069665068256269  0.2217631267621258  0.3672203985940425
  0.8062304969886687  0.7338099216004746  0.3638652046177923
  0.3459631641770443  0.7256746197990936  0.5830685551563469
  0.8473070172901060  0.2234395808944298  0.5699792780240072
  0.6642553589373456  0.7433019679190194  0.4099260851218990
  0.1569306645725995  0.2570622931766851  0.4055474178487529
  0.6642291240357734  0.2854013298679054  0.4123597962372662
  0.1597093315560124  0.7742125174689369  0.4163963971591804
  0.3436441843162609  0.2407139572700197  0.5805160040367773
  0.8488391996064382  0.7478201662710676  0.5762363418679074
  0.2522965723990984  0.7507815266965139  0.5105883641974225
  0.7550117033288356  0.2504764195148950  0.4985492052505842
  0.7570894905839363  0.7751925060718485  0.5045356215194384
  0.2500126506301690  0.2480870205985148  0.4930921534424131
  0.3478780657975801  0.7666978737386630  0.7926089209028500
  0.8458951393400126  0.2758646458703539  0.7739886392234331
  0.6601495529544054  0.7626672241591942  0.1949247411652187
  0.1631540066800980  0.2347550350563577  0.1979818574615747
  0.6630831912665567  0.2293717138428753  0.2077140983052546
  0.1548406646147250  0.7205529628053039  0.2087997447720769
  0.3462058378426766  0.2449098505274275  0.7955809035829837
  0.8469750894013308  0.7495244508048176  0.7885747969704430
  0.3288933374413458  0.7731886176685189  0.9906395786393449
  0.8348732448760920  0.2612015193464612  0.9794636011201581
  0.6750019541410895  0.7757365379788209  0.9959952382130860
  0.1734493751815195  0.2788290674271025  0.0012639200025725
  0.6708845526689121  0.2201975967418850  0.0011093547856437
  0.1713569942003506  0.7244695061961557  0.0094799461711716
  0.3290198983077098  0.2226527727721684  0.9916916551520807
  0.8319430891388050  0.7156263124777570  0.9839831897104351
  0.3240916961583112  0.5936139674005749  0.0460171978528498
  0.8331543671870927  0.0806746997199772  0.0343957992337926
  0.6786028759595943  0.5902095148097489  0.9598501781941225
  0.1790537461769456  0.0946928243454472  0.9573923525461869
  0.6826034834268536  0.4018186554540925  0.9559141395395795
  0.1777985326476662  0.9065744752390775  0.9561425697288805
  0.3298905602827713  0.4055552230708086  0.0449100896535952
  0.8215554596591036  0.8949913179401338  0.0298034286898413
  0.4554298586395870  0.6170019440124188  0.8336973500743743
  0.9543784050609598  0.1105372618334378  0.8285667344099702
  0.5547726921266782  0.6049937847581588  0.1653546610260637
  0.0529535527845963  0.1060482868143698  0.1643425126902301
  0.5505339853240321  0.3824265355438346  0.1591173592605832
  0.0508104326966777  0.8857262280528285  0.1609512886772957
  0.9538439605582464  0.8902300709108486  0.8242409501967046
  0.9470011308088208  0.1080765732858456  0.0787354552524307
  0.5606753716283921  0.6134879590878047  0.9157782161634043
  0.0610129242522798  0.1087997738330487  0.9140006413191556
  0.5628808365359976  0.3901020547792931  0.9108842095878122
  0.0604657643675093  0.8882745032991137  0.9118433102519863
  0.4456208341344804  0.3875660754188712  0.0824473605548199
  0.9444592884513819  0.8874399641476308  0.0730334082481470
  0.2953814838522697  0.7917680404894686  0.2455596380565217
  0.8012908942489733  0.2855440837580365  0.2308155167022759
  0.7059488691980240  0.7908640113857209  0.7536064634700665
  0.2045585580899477  0.2927171103912267  0.7530615630232094
  0.7074526545629214  0.2027527281375958  0.7475237727752495
  0.2058631541374987  0.7035066534268252  0.7558682938816216
  0.3011059403399817  0.2050821534462460  0.2360610084177318
  0.7999838585751090  0.7026852924064629  0.2364317162553841
  0.3037398263821534  0.7874415548008493  0.5040566764946961
  0.8066092475760511  0.2868173441020004  0.4867218107320342
  0.7037411546535337  0.8048339370899877  0.4996449314527480
  0.2015590429599460  0.2991734858678211  0.4999203741751796
  0.7027188248723742  0.2125895130920997  0.4920139519853747
  0.1996110796295980  0.7102166807956037  0.5006640630804352
  0.2989954903165830  0.1987467047616808  0.4877174229175480
  0.8009278611558567  0.7106024244234528  0.4875542279093446
  0.3093275920007714  0.7942650190807697  0.8591606261250648
  0.8108384382350720  0.2936058112211151  0.8529253489365413
  0.6988081745560573  0.7900677820468754  0.1279522463103900
  0.1976035954435793  0.2872790463559975  0.1344213120433716
  0.6979937323891755  0.2012170466044605  0.1309646158786400
  0.1933518291918463  0.6985829896588895  0.1396894093372311
  0.3081840893912292  0.2073557202367096  0.8585719565569568
  0.8102148100326271  0.7041435379917556  0.8503321911219083
  0.3494862560451905  0.6956396087660949  0.0902475778052167
  0.8535720528948867  0.1855233237729183  0.0788488974665334
  0.6557615624158162  0.6907604551343665  0.9059186847268444
  0.1547802598196415  0.1952910151221439  0.9088781009308969
  0.6571769255072953  0.3025551296455419  0.9065803824397789
  0.1545669778750078  0.8036698069317225  0.9121741319425533
  0.3523917215680866  0.3021226529391933  0.0864579721256914
  0.8497936083340272  0.7981026402513817  0.0776436452197777
  0.3654917161317670  0.6924525573823734  0.7123934335756674
  0.8632863776501511  0.1943423997481933  0.7005357368715642
  0.6491058585152395  0.6928008789398858  0.2882938017809990
  0.1442202275039396  0.1886204781596610  0.2968860453128104
  0.6427332317902504  0.3063747464160900  0.2789736947287463
  0.1406799327931829  0.8025783548542719  0.2860186259695415
  0.3608495170420725  0.3013120269455242  0.6955656194881673
  0.8630950357090669  0.8072071365069270  0.6920107131891471
  0.2700649698342825 -0.0004516257538863  0.7873431854552858
  0.7725252294032204  0.4954656163630847  0.7900722242759203
  0.7384458433555294  0.9976388381716620  0.2045638441113515
  0.2339298167717009  0.4942788097335478  0.2100966131794117
  0.2302555141503361  0.4956018410975270  0.8234991061310999
  0.7825412612876352  0.4922258485311844  0.1835880854290012
  0.2744323229538151  0.0021517747167213  0.1777810625568227
  0.7303945477312256  0.9953662250206718  0.8200774300838350
  0.3077745029883598  0.5028399726038177  0.6851379046174504
  0.6992848300218046  0.4913334076029427  0.3029247483146343
  0.1973895721553688  0.9917210333854848  0.3133014357373497
  0.8061146755411494  1.0025014977483273  0.6796391544758023
  0.2304662278483921  0.5108722601857959  0.4594306883704956
  0.2736269470928692  0.9860925131313082  0.5372407297254392
  0.7278753448203640  0.0104921233591326  0.4494852755758676
  0.2972594466867449  0.4953289153477278  0.0573437786812379
  0.7111944298244092  0.5000340377678323  0.9483247459267160
  0.2083259419669198  0.0001341421806602  0.9433651993002063
  0.7984268177344078  0.9954082980982216  0.0495557845964774

             NaN             NaN             NaN
             NaN             NaN             NaN
             NaN             NaN             NaN
             NaN             NaN             NaN
             NaN             NaN             NaN
             NaN             NaN             NaN
             NaN             NaN             NaN
             NaN             NaN             NaN
             NaN             NaN             NaN
             NaN             NaN             NaN
             NaN             NaN             NaN
             NaN             NaN             NaN
             NaN             NaN             NaN
             NaN             NaN             NaN
             NaN             NaN             NaN
             NaN             NaN             NaN
             NaN             NaN             NaN
             NaN             NaN             NaN
             NaN             NaN             NaN
             NaN             NaN             NaN
             NaN             NaN             NaN
             NaN             NaN             NaN
             NaN             NaN             NaN
             NaN             NaN             NaN
             NaN             NaN             NaN
             NaN             NaN             NaN
             NaN             NaN             NaN
             NaN             NaN             NaN
             NaN             NaN             NaN
             NaN             NaN             NaN
             NaN             NaN             NaN
             NaN             NaN             NaN
             NaN             NaN             NaN
             NaN             NaN             NaN
             NaN             NaN             NaN
             NaN             NaN             NaN
             NaN             NaN             NaN
             NaN             NaN             NaN
             NaN             NaN             NaN
             NaN             NaN             NaN
             NaN             NaN             NaN
             NaN             NaN             NaN
             NaN             NaN             NaN
             NaN             NaN             NaN
             NaN             NaN             NaN
             NaN             NaN             NaN
             NaN             NaN             NaN
             NaN             NaN             NaN
             NaN             NaN             NaN
             NaN             NaN             NaN
             NaN             NaN             NaN
             NaN             NaN             NaN
             NaN             NaN             NaN
             NaN             NaN             NaN
             NaN             NaN             NaN
             NaN             NaN             NaN
             NaN             NaN             NaN
             NaN             NaN             NaN
             NaN             NaN             NaN
             NaN             NaN             NaN
             NaN             NaN             NaN
             NaN             NaN             NaN
             NaN             NaN             NaN
             NaN             NaN             NaN
             NaN             NaN             NaN
             NaN             NaN             NaN
             NaN             NaN             NaN
             NaN             NaN             NaN
             NaN             NaN             NaN
             NaN             NaN             NaN
             NaN             NaN             NaN
             NaN             NaN             NaN
             NaN             NaN             NaN
             NaN             NaN             NaN
             NaN             NaN             NaN
             NaN             NaN             NaN
             NaN             NaN             NaN
             NaN             NaN             NaN
             NaN             NaN             NaN
             NaN             NaN             NaN
             NaN             NaN             NaN
             NaN             NaN             NaN
             NaN             NaN             NaN
             NaN             NaN             NaN
             NaN             NaN             NaN
             NaN             NaN             NaN
             NaN             NaN             NaN
             NaN             NaN             NaN
             NaN             NaN             NaN
             NaN             NaN             NaN
             NaN             NaN             NaN
             NaN             NaN             NaN
             NaN             NaN             NaN
             NaN             NaN             NaN
             NaN             NaN             NaN
             NaN             NaN             NaN
             NaN             NaN             NaN
             NaN             NaN             NaN
             NaN             NaN             NaN
             NaN             NaN             NaN
             NaN             NaN             NaN
             NaN             NaN             NaN
             NaN             NaN             NaN
             NaN             NaN             NaN
             NaN             NaN             NaN
             NaN             NaN             NaN
             NaN             NaN             NaN
             NaN             NaN             NaN
             NaN             NaN             NaN
             NaN             NaN             NaN
             NaN             NaN             NaN
             NaN             NaN             NaN
             NaN             NaN             NaN
             NaN             NaN             NaN
             NaN             NaN             NaN
             NaN             NaN             NaN
             NaN             NaN             NaN
             NaN             NaN             NaN
             NaN             NaN             NaN
             NaN             NaN             NaN
             NaN             NaN             NaN
             NaN             NaN             NaN
             NaN             NaN             NaN
             NaN             NaN             NaN
             NaN             NaN             NaN
             NaN             NaN             NaN
             NaN             NaN             NaN
             NaN             NaN             NaN
             NaN             NaN             NaN
             NaN             NaN             NaN
             NaN             NaN             NaN
             NaN             NaN             NaN
             NaN             NaN             NaN
             NaN             NaN             NaN
             NaN             NaN             NaN
             NaN             NaN             NaN
             NaN             NaN             NaN
             NaN             NaN             NaN
             NaN             NaN             NaN
             NaN             NaN             NaN
             NaN             NaN             NaN
             NaN             NaN             NaN
             NaN             NaN             NaN
             NaN             NaN             NaN
             NaN             NaN             NaN
             NaN             NaN             NaN
             NaN             NaN             NaN
             NaN             NaN             NaN
             NaN             NaN             NaN
             NaN             NaN             NaN
             NaN             NaN             NaN
             NaN             NaN             NaN
             NaN             NaN             NaN
             NaN             NaN             NaN
             NaN             NaN             NaN
             NaN             NaN             NaN
             NaN             NaN             NaN
             NaN             NaN             NaN
             NaN             NaN             NaN
             NaN             NaN             NaN
             NaN             NaN             NaN
             NaN             NaN             NaN
             NaN             NaN             NaN
             NaN             NaN             NaN
             NaN             NaN             NaN
             NaN             NaN             NaN
             NaN             NaN             NaN
             NaN             NaN             NaN
             NaN             NaN             NaN
             NaN             NaN             NaN
             NaN             NaN             NaN
             NaN             NaN             NaN
             NaN             NaN             NaN
             NaN             NaN             NaN
             NaN             NaN             NaN
             NaN             NaN             NaN
             NaN             NaN             NaN
             NaN             NaN             NaN
             NaN             NaN             NaN
             NaN             NaN             NaN
             NaN             NaN             NaN
             NaN             NaN             NaN
             NaN             NaN             NaN
             NaN             NaN             NaN
             NaN             NaN             NaN
             NaN             NaN             NaN
             NaN             NaN             NaN
             NaN             NaN             NaN
             NaN             NaN             NaN
             NaN             NaN             NaN
             NaN             NaN             NaN
             NaN             NaN             NaN
             NaN             NaN             NaN
             NaN             NaN             NaN
             NaN             NaN             NaN
             NaN             NaN             NaN
             NaN             NaN             NaN
             NaN             NaN             NaN
             NaN             NaN             NaN
             NaN             NaN             NaN
             NaN             NaN             NaN
             NaN             NaN             NaN
             NaN             NaN             NaN
             NaN             NaN             NaN
             NaN             NaN             NaN
             NaN             NaN             NaN
             NaN             NaN             NaN
             NaN             NaN             NaN
             NaN             NaN             NaN
             NaN             NaN             NaN
             NaN             NaN             NaN
             NaN             NaN             NaN
             NaN             NaN             NaN
             NaN             NaN             NaN
             NaN             NaN             NaN
             NaN             NaN             NaN
             NaN             NaN             NaN
             NaN             NaN             NaN
             NaN             NaN             NaN
             NaN             NaN             NaN
             NaN             NaN             NaN
             NaN             NaN             NaN
             NaN             NaN             NaN
             NaN             NaN             NaN
             NaN             NaN             NaN
             NaN             NaN             NaN
             NaN             NaN             NaN
             NaN             NaN             NaN
             NaN             NaN             NaN
             NaN             NaN             NaN
             NaN             NaN             NaN
             NaN             NaN             NaN
             NaN             NaN             NaN
             NaN             NaN             NaN
             NaN             NaN             NaN
             NaN             NaN             NaN
             NaN             NaN             NaN
             NaN             NaN             NaN
             NaN             NaN             NaN
             NaN             NaN             NaN
             NaN             NaN             NaN
             NaN             NaN             NaN
             NaN             NaN             NaN
             NaN             NaN             NaN
             NaN             NaN             NaN
             NaN             NaN             NaN
             NaN             NaN             NaN
             NaN             NaN             NaN
             NaN             NaN             NaN
             NaN             NaN             NaN
             NaN             NaN             NaN
             NaN             NaN             NaN
             NaN             NaN             NaN
             NaN             NaN             NaN
             NaN             NaN             NaN
             NaN             NaN             NaN
             NaN             NaN             NaN
             NaN             NaN             NaN
             NaN             NaN             NaN
             NaN             NaN             NaN
             NaN             NaN             NaN
             NaN             NaN             NaN
             NaN             NaN             NaN
             NaN             NaN             NaN
             NaN             NaN             NaN
