POSCAR file created from dimer generator script with atoms sorted 
1.0
29.4686239299999997 -0.0699228200000000 -0.0508829300000000
-0.0335788000000000 13.9991373299999999 -0.0137711200000000
-3.2760659900000002 -0.0040951700000000 12.0236671499999996
Al C H O Si
1 20 27 152 75
Cartesian
12.8099231741924537 8.4788583112830480 1.0744468516707666
15.7323066970478376 12.8389691465294433 3.9277052275036071
14.4095800628541522 13.2946311554148835 4.5628947434398031
14.0419255395888705 12.5915400980167984 5.8546943683577268
14.0683678770403020 13.2470382922516166 7.0944352395671482
14.6965209742328984 0.6563225987846942 7.2724089836133938
16.1821868931014450 0.7261833185028693 6.8908341032096558
14.4424225117531293 1.0753349437518143 8.6930944062770177
15.1609936099634393 0.3385082637643397 9.7044804480544116
14.8193442988936219 0.4860384301013467 11.0814871910395407
13.6942913516733284 1.2187883783164775 11.4181967848821095
12.9642534069955140 1.8719014115195522 10.4130412444219349
13.3219672141836760 1.8269449885886671 9.0496267067405611
12.4733086717895709 2.5196219383934295 8.0155988115553267
11.3780514904725329 1.6252724144858113 7.4166508196393961
13.5380065092076549 12.5838809203311719 8.2458591846522520
13.2044826754709348 11.2180554069301444 8.1983626420537270
13.2759712128857483 10.5517965314579509 6.9939424914885135
13.5767756710049579 11.2487600573731683 5.8084533784784540
13.1921864563802309 10.5949186254606786 4.5216507489314850
11.7081946592489334 10.9363655762507985 4.2738482091444601
16.5836436531412268 12.9870444997375714 4.6032209131947779
15.9264950113324701 13.4064386652009375 3.0064103400513686
15.7051877490423770 11.7740606829223449 3.6689301375447965
14.4651000264258496 0.3817323411909410 4.7352080996871786
13.5970864143760224 13.1223645409990812 3.8409790082043918
14.1449020869238762 1.3326749836416507 6.6040558218207721
16.5858019743079623 1.6974034002318485 7.1971481254634826
16.3235228997126036 0.6367016870935683 5.8115046254784195
16.7389463822384279 13.9357860420741648 7.3560196102111242
16.1289795139151693 13.9734163498169348 9.4509702548360490
15.3953558087814812 13.9983107829561302 11.8291704349140936
16.6625099009277271 1.3234164886607407 0.4357313813453267
12.0789640913154290 2.4447814792829941 10.6931730606524784
12.0033529045242382 3.3890463677292417 8.4783822229223826
13.1152821388075225 2.9131935447737023 7.2137329233705065
10.7796558411308236 2.1983748937970038 6.6978490644530382
10.6976155476341290 1.2620632887199310 8.1996241475310452
11.7904887571581867 0.7492245993119230 6.8992568962697804
14.5344905986897608 13.2335221160484018 9.2851440659692326
12.9721804434340431 13.1580387162600534 8.9903829822751291
12.8010235144582740 10.7254365242629550 9.0785073627212487
12.9668668891994692 9.5075515169131108 6.9276457536032661
13.3094156812502327 9.5055668129978912 4.5939911351367737
13.7961126904788838 10.9152587721829413 3.6680346774674328
11.0763553902731946 10.5536423464511007 5.0866871343841753
11.5565240091869708 12.0245137848989696 4.2186523875507245
11.3858847653371669 10.4907906047582280 3.3302952548458453
10.0753032080377416 9.5409286810241429 8.9229055629838889
24.7884543790470957 2.5043505262737211 8.9264411219365662
16.5647895252087700 9.3268819731935189 3.2014595926581708
1.7805152772475583 2.5008661923785396 3.1401624605252687
16.4686447607260362 4.3531985234108310 3.0417406393465121
1.6859594767369863 11.4580977407659077 3.1145403792979889
10.0232024016522168 4.4997867777179765 8.8883453937553867
24.7532139689936663 11.4526847167087542 8.8484837529406111
12.2671927406890546 9.0044567995765661 10.2677496707033171
-2.4270249741469261 2.0479348990687480 10.2273901875096858
14.2483965811106241 9.0142457075608675 1.9399924845089873
-0.5062079582268834 2.0063591096644959 1.8929737071500334
14.2673643153993925 4.7875407489912662 1.7030835890946239
28.9516604080023932 11.8909127269134434 1.7447943350860171
12.3082866200102572 5.0024216058624207 10.1575783741837355
-2.4445224827322942 12.0202585370309212 10.1844765470256302
10.7558786000797433 7.0113585916162551 9.3939330223016029
25.4495158066048219 -0.0306086191864280 9.4501834947809016
15.7845556627693249 6.8767250368518900 2.5098936013055417
1.0458027725812935 13.9830660699006462 2.5521369900242776
9.8767280109406297 8.5505808516709827 11.3929998553603955
24.6900773114715086 1.5986531882187773 11.4092645949058706
16.6112219543424615 8.5973075499300506 0.6880636512280208
1.8191190765544498 1.6428393224348818 0.6409307506319417
16.6463307612398772 5.2594192194139984 0.5701509525737221
1.8408729586247492 12.3518276159693201 0.6064500234515581
9.9605048053747556 5.3693294878753459 11.3712834589511793
24.6579651598820853 12.2923312683626627 11.3404515480293586
11.4399593943397448 9.4988134077129285 1.4026081326910422
26.4331213075265516 2.4345630879764864 1.3819500127031816
14.7582284636961933 9.5780791828263823 10.7158210993508298
0.0802556572002744 2.5968563773705204 10.7255770700251585
14.8849719562529845 4.5164500920829500 10.5503549242175900
0.1001702677948311 11.4998275349658083 10.6310715613455233
11.7634473783423115 4.2247984642075682 1.2050006876681914
26.4415263050880789 11.3451510549442585 1.2858465884561581
12.5027360035519894 6.8036877904938082 1.4956384208801812
27.2504081227257444 13.9084580691633484 1.3052261749818634
14.0028234150395754 7.0154843085759078 10.6845165067278973
-0.7261719343440580 0.0321464693302700 10.6943931915754806
3.9295365227352375 0.0631294371146332 9.9277423161954772
18.7336588745741857 7.1463521753066415 9.8403865687487357
22.6257727367993411 -0.0685589637352738 2.0663079114972072
7.7817272048678561 6.7659041938559108 2.0850769798864555
6.1856481131993801 12.7504346993728248 10.1119455322189431
21.0246769439883501 5.8531675589823902 10.2018449402928404
20.2358244484416261 12.6642856449307963 1.9547317612127142
5.3831752833434177 5.5769210867284071 2.0812896434132320
20.3626270628224582 1.2656289570916293 1.7708335158194350
5.5593713834346357 8.1932655114874677 1.8490562593053814
6.2700738816215527 1.3581575457880291 9.9631417942318166
21.0767402179567824 8.4448558366181903 9.8400328409122313
5.4951170424018407 13.9602610423494298 7.8189206430113538
20.3598706599914969 6.8912597034688607 7.8097740181888611
20.9565311062610888 0.0855102562576733 4.1099332461763458
6.1978012390334376 6.9951857516864475 4.1638879301682268
3.2534328233340468 5.6411210032584522 9.2499035050683727
17.9925248820044459 12.7171236966080734 9.3053359961489814
23.1871695854067674 5.6747486790769521 2.5083128593751951
8.1878267020707067 12.6648618158106192 2.6960000481864994
23.1914200468208733 8.3266968612785242 2.6279942532077012
8.4951871761063149 1.3021253492026070 2.6792112409171218
3.4361831385564430 8.2828611303578725 9.5212569503099136
18.3937533806380671 1.3302036153407180 9.3505963936829470
5.6310383216763356 6.7931717955774369 9.2428543242324377
20.4515793271669573 13.6499109051503904 9.1911055565599646
20.8966552543958066 7.0004939306330343 2.6599444479180354
6.0705467615205437 0.2638221164123971 2.7291754577401268
4.1933416999548525 6.6533692432999896 11.4838009377979162
18.9891947991587990 13.8659847262584961 11.4426926586040967
22.3352572048115157 7.1068402876997663 0.4402305109025703
7.5709576170866821 0.0604463594770945 0.5398677329913085
6.4196592130193268 7.4391193371644038 6.7518934143916365
21.1468598552883016 0.4598048823967823 6.7167777882918607
20.1736016382067476 6.4917215331391809 5.2109361180498270
5.3990718944727591 13.5058464679465864 5.2234452619630671
7.7895591090070475 5.7270527988491313 8.1737920179269956
22.6705215078522961 12.8262757772495455 7.9991756232116344
18.6664540902541027 5.7653489242384497 3.1943692888826996
4.0275187720766823 12.6390405132957842 3.1534232814412353
18.9632370139415940 8.3327059733779247 3.8111436722287499
3.9066224714646207 1.1722231914146053 3.9383138068997940
7.7609020917476936 8.2698536770555080 8.8551002831284453
22.4282891268923592 1.3434759858038861 8.8323152925621322
4.5303841175416411 5.7887477583308655 5.8779888611213806
19.2594192284993646 12.7996846351015670 5.7573862162472444
22.2655349750979354 5.5814029935670941 6.4900168984176529
7.4372313704506654 12.5911218816117199 6.5758144255246167
21.9789523324925185 8.2087062330395568 6.1343139490288134
7.2431911911786493 1.2073489213740027 6.2011848457587204
4.3485153712283857 8.4049387344571898 5.4564545387305934
19.0788281649381766 1.4323935732380884 5.4635548471132829
9.0536058671937205 10.1668674302451922 2.3198355060249227
24.0827846421304770 3.1913476516193944 2.3075729768261333
16.9997614234608285 10.2578420621690256 9.5172688049709411
2.3858665979029960 3.1351425016632208 9.5683289579574211
17.2340116072691210 3.7008971292480042 9.6264253834215694
2.4699554793980156 10.7392295177332624 9.7027455738934396
9.4764518554908364 3.7633231286089619 2.4518778092808482
24.0850323132825856 10.8160711569108354 2.3714839384815569
6.4421357440887865 10.6820013687779571 2.3772315234325720
21.4456420487754436 3.6782484398710680 2.2398837914222938
19.6144840081565732 10.6728188656107523 9.8542262115396912
4.9958844589772102 3.6905301900706888 9.7627420275617638
19.9044664802074287 3.4675461779763168 9.7966047347908010
5.1349484295442274 10.3460469602489571 9.5963562076843658
6.8567596171839957 3.3506693948568804 2.1630889504852604
21.4712498634239175 10.2995418091327320 2.1238176446575370
7.9141440235106355 10.8455840522167790 4.5771683261917904
22.8711414007346292 3.9237846874037960 4.4777111181016362
18.4559683908891294 10.9003354136815833 7.4502895318062077
3.7171616809815657 3.7719770492864999 7.4284209374915831
18.6278446453848758 3.1654730421835402 7.4836850857567612
3.5895165705455558 9.9669679905539841 7.4851146012129970
8.0569489176045188 3.1293117402111603 4.5423659968685319
22.7039077754850922 10.1647360948616150 4.4805429684775762
8.3308228269681983 10.1623309582498820 7.0517341665834108
23.1316544863866334 3.1262967145120188 6.9522769275642604
18.1789947109927397 10.5725096471012296 4.8887441427549296
3.4895541206945966 3.6217527276948918 4.8345953141474212
18.1744807322086004 3.8693086841263677 5.0244295270270873
3.4091515122531915 10.8357371368366682 5.0375575605515994
8.3691152387611467 3.3942489744507651 7.1211410640081656
23.0990242587797212 10.3909499774858514 7.0653100773534190
5.8196502880429222 10.5198292355108887 6.1723801557204601
20.6975478592111841 3.5008600751721439 5.8889338442526205
20.6269462510815558 10.5209032182217825 6.0427244679550993
5.9134750726873371 3.5128207436170502 6.0098126368920362
7.7812086161578353 10.7786159986172869 9.5919246543030177
22.5387976081285899 3.8844538795745565 9.4242774067108481
18.7986141602516561 10.4939223958317172 2.3170570103737949
4.1929718352703382 3.2330119739665517 2.3034606117590535
18.8265884279360876 3.2082608799102066 2.5476572219070950
3.8704337538249529 10.0788327671309741 2.5202807930406692
7.6694422323384845 3.5567950783904867 9.6842960903455406
22.2780631418436954 10.7606139606446956 9.5724465069490439
6.3958423003782539 10.8344665002201523 11.8859054811594973
21.4922029329669293 3.8651888445029572 11.8710681134771470
19.9729525781488171 10.9170173445534342 0.0095903305122555
5.3272020423653093 3.8818588838255987 0.0447826071120147
19.9017028701556207 3.2341610833306245 0.1167366606425009
5.0833306258159752 10.1348266838014922 0.1545926504274695
6.3988898960152909 3.1083813318070121 11.9421308803601587
21.2161288509349077 10.1240364813834116 11.8875356789335935
9.2497384652777441 8.3089263197217456 0.4389793153841683
24.2272465771448005 1.3398601188043311 0.4162692198520612
16.9758425264234880 8.3510332555438058 11.4218237655916166
2.2012830413993321 1.2896604156967890 11.5162953793839069
17.0934531589544676 5.7114520862732441 11.3858012391294157
2.2810070842264625 12.6585265072293840 11.5373811792068413
9.6644176267867135 5.6848564320850272 0.5782682134576470
24.3634332111165506 12.7041678532492952 0.4928099286914175
10.7062397331858321 8.5230475031336947 10.0489224030619795
25.4999887249162640 1.5049688778649011 9.9990728554953492
15.7316351555997898 8.4614654567178711 2.0703433586330533
1.0444834489773451 1.5332076671375652 2.0617158405149705
15.7619108814717350 5.3530377678212959 1.9481024264643678
1.0213064724897003 12.4455970039647799 2.0111174743828832
10.7470227863064451 5.4950084465980558 9.9720490615067003
25.4803186317687818 12.4184201529300982 9.9443247726739035
27.6693317714248757 1.4611419441129248 0.9786067521202267
13.5663328431491941 8.5351179346581052 11.1146681584938900
-1.1205251859394441 1.5707631658364209 11.0801271294390506
13.6272013132151244 5.4608372626487895 11.0037917079428826
-1.1268483808475764 12.4786787624460658 11.0378352793546384
12.9146930750701685 5.3640364658494191 0.9573243627511785
27.6460025881073292 12.3709724502595044 0.9123010086582580
7.9052746004076884 11.0823341723027475 2.9741793637830738
22.8838415777931630 4.1179352321788887 2.8746655317180818
18.2826488129768379 11.1243857971047486 9.0377306223345144
3.5970644128194276 4.0633974945852378 9.0163811480879090
18.5533346886690040 2.9281591198604571 9.0802527366102019
3.6747526920391298 9.8350503989978009 9.0965760855357427
8.2074826263074439 2.8868050816512039 2.9478414410651030
22.8534175484347308 9.8985918297024771 2.8921060131613459
7.3612095863201379 11.0287331150498495 6.0842643733533794
22.2306869918325383 4.0366433087254858 5.9545242028331460
19.1490154993052819 11.1943468635516794 6.0202081882743261
4.4280148960277144 4.1755888289628595 6.0336382501711823
19.1610737615408198 2.9907438414312266 5.9661360585305552
4.3121391690777218 9.9307992376408620 6.0409180610343292
7.3783280414825612 2.8112482263172449 5.9736514422221410
22.0896128908123366 9.8168593399832353 5.9341087743827554
6.3676413937143845 11.1516687088403916 10.3028864448719926
21.2356428566751774 4.2526068523640346 10.3182021438571319
20.1352379259360816 11.0791988492510995 1.6198916032531101
5.4602286987231201 4.0129729197882158 1.6615940673934058
20.1493249920711328 2.8714243136001034 1.6768329845009384
5.2583589093521361 9.7769031491328082 1.7275496559733330
6.3180085965470862 2.9338602932132476 10.3310904131490577
21.0380097871566178 10.0034949169105385 10.2768251363510590
9.9119716934709388 9.6930265549426267 1.0102311361843381
24.8865978390917455 2.7145510386217602 0.9850926604893280
16.3504245451005445 9.7643927116581271 10.9252808351067809
1.6842003310678368 2.7296386718469123 10.9720051301674637
16.4517549660453497 4.2958869522481171 10.9251611794622772
1.6677101793432243 11.2508250821856386 11.0123961239280064
10.1519661809396347 4.2045293748367651 1.0382660906537771
24.8479064193350077 11.2386055955285098 1.0038541208629419
8.4869081408233349 9.7010996301070271 8.6025083146260215
23.2319121157059243 2.7252280529507509 8.5223663627469879
18.1038471914779215 9.6727057336147819 3.5374650514524100
3.3529622904322900 2.6436319667554313 3.5555341495422881
18.0324944367057363 4.2950957224313377 3.4611305216674171
3.2594782134332929 11.2404145815759922 3.4767383622623527
8.4558200869955229 4.2911575738538259 8.4724476193322129
23.2016209227514629 11.3410291794054174 8.3741604457397134
5.4936618694081716 0.0284703885498743 9.4584140933944507
20.3093144598827813 7.0808686022092315 9.4216127169490544
21.0500319797744631 -0.0142228299242307 2.4909572253099936
6.2252800606893537 6.8892855810931808 2.5432769266182960
4.1335958546827367 6.8617138729237119 9.8740324355368703
22.4034002246095376 7.0240272029351010 2.0626779227012713
7.5883278478432494 0.0541784078881321 2.1671220171773542
18.9763299424461103 13.9125777511855073 9.8207785380091543
6.8874384094529137 7.0570615115543074 8.2590733390201958
19.6801813401957979 6.9022400938215025 3.7202097897038433
4.8459995881096374 13.8972694645063175 3.7524237853616298
21.6890895882222168 0.0615688741086576 8.1910032625740481
5.3698300938487655 7.1402501379254799 5.5510761972294702
21.2024186076491183 6.8152288771596536 6.4237509970205879
6.3886739946854547 13.8340378384914544 6.4669551529190477
20.1161237944483702 0.1734354224155762 5.4992617497773129
8.5625336552885187 6.8678199726337148 0.6534476464239765
17.9541062340687105 7.0742770245654585 11.2707165974954595
3.1841408814154364 0.0121287639914478 11.3762694404251459
23.4002142212899358 -0.0324905960296463 0.6299626945809850
