POSCAR file created from dimer generator script with atoms sorted 
1.0
29.4686241149902344 -0.0699228197336197 -0.0508829317986965
-0.0335787981748581 13.9991369247436523 -0.0137711204588413
-3.2760660648345947 -0.0040951701812446 12.0236673355102539
Al C H O Si
1 5 11 155 75
Cartesian
12.8318290710449219 8.4495029449462891 1.0439124107360840
12.2381725311279297 7.2929043769836435 6.3242783546447754
12.6189994812011719 8.7131538391113352 6.7746543884277344
12.8031301498412979 9.4244365692138672 5.4899506568908691
12.3792524337768555 7.2921833992004395 4.7882709503173828
13.5029535293579084 6.4606719017028844 4.2281999588012704
12.9020633697509730 6.5398378372192418 6.7652554512023926
11.2114191055297852 7.0476460456848145 6.6190419197082520
11.8523292541503906 9.2298040390014648 7.3704071044921875
13.5652332305908221 8.7771635055541992 7.3293380737304696
14.8531274795532209 9.1087970733642578 4.6059503555297852
13.6144886016845703 6.6327705383300781 3.1492393016815190
13.2641887664794904 5.3990292549133319 4.3803262710571298
11.4325695037841903 7.0867743492126474 4.2744412422180176
14.4418678283691371 6.6960358619689941 4.7467288970947266
15.0258741378784091 9.5083408355712944 6.0646519660949707
13.1275835037231552 10.9760770797729492 4.4825763702392578
10.1133174896240199 9.5258083343505930 8.8960218429565430
24.8097057342529297 2.4543542861938481 8.8811302185058594
16.5923576354980469 9.2907161712646484 3.1636049747467045
1.7918758392333982 2.4997415542602526 3.1346054077148442
16.4841537475585938 4.3171024322509775 3.0089855194091801
1.7185335159301756 11.4571380615234375 3.1002619266510010
10.0492115020751953 4.4847660064697266 8.8665456771850586
24.7956085205078338 11.4026718139648438 8.7943620681762695
12.3062467575073065 8.9854621887207031 10.2376089096069336
-2.4044361114501953 2.0638108253478999 10.2295303344726562
14.2730569839477539 8.9823255538940447 1.9064483642578125
-0.4981918334960944 2.0094323158264160 1.8918557167053223
14.2815952301025391 4.7553510665893555 1.6736979484558105
28.9827270507812536 11.8239002227783203 1.6829915046691897
12.3376655578613228 4.9832410812377930 10.1313400268554688
-2.3983993530273469 12.0360946655273473 10.1767158508300799
10.7887001037597727 6.9950966835022008 9.3683815002441406
25.4656753540039169 -0.0816702842712402 9.4062442779541016
15.8051347732543910 6.8417239189147949 2.4758100509643555
1.0833921432495117 13.9830741882324219 2.5364704132080078
9.9166612625121964 8.5383720397949219 11.3674335479736328
24.7134952545166016 1.5513234138488770 11.3650159835815430
16.6327056884765625 8.5585393905639648 0.6508712768554689
1.8241071701049802 1.6391634941101074 0.6361689567565918
16.6597042083740163 5.2204594612121582 0.5362019538879396
1.8712329864501951 12.3480167388916016 0.5910468101501466
9.9928579330444283 5.3569183349609375 11.3487348556518555
24.7066173553466903 12.2450065612792969 11.2856159210205078
11.4648551940917969 9.4730205535888619 1.3734459877014160
26.4411468505859446 2.3732023239135742 1.3339071273803713
14.7994041442871112 9.5536155700683540 10.6807937622070312
0.1049699783325164 2.6072440147399907 10.7228412628173828
14.9138622283935565 4.4915394783020028 10.5201511383056641
0.1458129882812461 11.5100669860839844 10.6194705963134766
11.7754974365234428 4.1980538368225098 1.1805162429809573
26.4704933166503906 11.2836494445800781 1.2289390563964846
12.5213928222656179 6.7754702568054199 1.4673085212707522
27.2854843139648295 13.8450412750244141 1.2443718910217285
14.0378694534301740 6.9927949905395499 10.6533432006835938
-0.7075929641723666 0.0444188117980957 10.6955928802490252
3.9468469619750981 0.0636224746704102 9.9208765029907227
18.7675209045410085 7.1116042137146005 9.8009233474731445
22.6290817260742116 -0.1202235221862793 2.0273060798645020
7.8013572692870978 6.7494716644287109 2.0649411678314209
6.2333688735961905 12.7457256317138672 10.0885782241821289
21.0560951232909943 5.8133354187011719 10.1596965789794922
20.2691307067871094 12.6181564331054688 1.9072251319885256
5.3999924659729004 5.5661787986755371 2.0664634704589844
20.3685970306396413 1.2190618515014648 1.7344398498535158
5.5819382667541504 8.1818675994873047 1.8313212394714358
6.2905030250549325 1.3531165122985840 9.9509458541870117
21.1136894226074290 8.4045457839965820 9.7952327728271484
5.5417346954345703 13.9548892974853516 7.7955527305603027
20.3896331787109375 6.8506345748901367 7.7677679061889657
20.9637165069579972 0.0398488044738770 4.0736660957336426
6.2215704917907706 6.9845657348632821 4.1462392807006836
3.2828178405761665 5.6425228118896484 9.2386770248413086
18.0386981964111257 12.6835975646972674 9.2616376876831072
23.2048397064209020 5.6221933364868164 2.4626603126525879
8.2224922180175692 12.6480484008789062 2.6693065166473393
23.2155838012695348 8.2742376327514666 2.5796823501586914
8.5028896331787109 1.2846121788024902 2.6632442474365234
3.4723005294799751 8.2840824127197283 9.5070724487304705
18.4129962921142791 1.2958021163940436 9.3174962997436523
5.6631145477294922 6.7889170646667480 9.2263870239257812
20.4997577667236328 13.6104259490966815 9.1422281265258807
20.9177436828613281 6.9535045623779395 2.6169254779815674
6.0758624076843253 0.2521061897277833 2.7184376716613770
4.2289857864379874 6.6547513008117676 11.4699287414550799
19.0417518615722621 13.8321895599365234 11.3961181640625018
22.3527545928955114 7.0542502403259286 0.3946156501770021
7.5720090866088867 0.0429978370666504 0.5267367362976074
6.4489483833312979 7.4305357933044434 6.7334184646606454
21.1594429016113281 0.4162850379943848 6.6798014640808105
20.1979217529296875 6.4489841461181658 5.1696557998657227
5.4401397705078125 13.4981470108032227 5.2007255554199219
7.8172550201416007 5.7166299819946245 8.1546306610107422
22.7146377563476527 12.7803621292114258 7.9472947120666513
18.6855735778808665 5.7241907119750985 3.1564147472381596
4.0629186630248997 12.6325483322143555 3.1339221000671387
18.9895038604736328 8.2914428710937571 3.7701342105865479
3.9161939620971684 1.1668324470520020 3.9304072856903081
7.7957835197448686 8.2601623535156357 8.8334732055664062
22.4466552734375000 1.2989764213562012 8.7922506332397461
4.5542869567871067 5.7837796211242676 5.8644113540649414
19.2996253967285156 12.7596359252929688 5.7114171981811523
22.2898941040039062 5.5349607467651367 6.4460291862487793
7.4784374237060547 12.5799274444580078 6.5504627227783203
22.0089111328125000 8.1625804901123153 6.0882048606872559
7.2567620277404794 1.1962933540344238 6.1874742507934570
4.3778495788574219 8.3999872207641602 5.4405832290649414
19.0915794372558345 1.3925127983093262 5.4291801452636728
9.0816879272460866 10.1476402282714844 2.2941236495971680
24.0942802429199006 3.1364581584930424 2.2628173828125000
17.0404624938965092 10.2268810272216815 9.4777126312255859
2.4098558425903263 3.1389408111572292 9.5610866546630859
17.2593612670898438 3.6695032119750977 9.5929756164550781
2.5122117996215767 10.7429294586181641 9.6877861022949219
9.4895782470703107 3.7432467937469482 2.4317865371704106
24.1146564483642578 10.7612285614013672 2.3191676139831543
6.4715323448181152 10.6690340042114364 2.3555121421813965
21.4581222534179688 3.6295757293701185 2.1991908550262451
19.6567497253418111 10.6359844207763654 9.8097448348999023
5.0215129852294913 3.6883201599121098 9.7504158020019531
19.9295196533203125 3.4299876689910898 9.7587594985961932
5.1760616302490225 10.3433160781860352 9.5772066116333026
6.8684086799621582 3.3365235328674316 2.1479270458221436
21.4992485046386719 10.2506618499755859 2.0765097141265869
7.9477415084838867 10.8312911987304688 4.5527353286743164
22.8880805969238494 3.8739194869995162 4.4343261718750000
18.4946098327636719 10.8638706207275391 7.4075899124145508
3.7389478683471671 3.7704858779907227 7.4182515144348145
18.6481971740722656 3.1286516189575200 7.4483609199523944
3.6260728836059561 9.9658107757568359 7.4690065383911142
8.0721797943115128 3.1146674156188969 4.5253405570983887
22.7356433868408025 10.1152544021606410 4.4312438964843759
8.3670911788940430 10.1494922637939453 7.0272464752197275
23.1509857177734162 3.0782673358917236 6.9092245101928711
18.2124214172363281 10.5341777801513672 4.8468585014343271
3.5065069198608385 3.6182446479797359 4.8249597549438477
18.1922550201416016 3.8311421871185303 4.9892044067382812
3.4435567855834961 10.8325986862182599 5.0209140777587891
8.3894405364990234 3.3814153671264648 7.1033058166503924
23.1357669830322266 10.3430919647216850 7.0151023864746094
5.8552412986755371 10.5120811462402415 6.1518802642822275
20.7159194946288920 3.4575545787811284 5.8497157096862793
20.6622505187988281 10.4779119491577166 5.9966659545898438
5.9321722984313965 3.5047039985656738 5.9961118698120117
7.8233318328857431 10.7695817947387695 9.5677680969238281
22.5641937255859659 3.8402719497680664 9.3814725875854492
18.8274040222167756 10.4515724182128906 2.2741880416870122
4.2046337127685538 3.2253308296203613 2.2930240631103520
18.8384971618652344 3.1660971641540527 2.5119638442993164
3.8986654281616167 10.0720968246459961 2.5035996437072754
7.6945948600769007 3.5481562614440914 9.6675033569335938
22.3199977874755788 10.7171792984008771 9.5232658386230469
6.4420709609985245 10.8309965133667028 11.8640727996826172
21.5217952728271484 3.8259093761444092 11.8300895690917969
19.9987583160400391 10.8695917129516602 -0.0357046127319336
5.3364529609680176 3.8692531585693359 0.0317511558532715
19.9094638824462891 3.1870384216308594 0.0791845321655273
5.1076192855834961 10.1228885650634766 0.1357769966125488
6.4268908500671378 3.1049814224243164 11.9279670715332031
21.2605934143066406 10.0854148864746094 11.8408107757568359
9.2701435089111328 8.2873926162719780 0.4147772789001465
24.2310066223144531 1.2827787399291992 0.3731083869934082
17.0153026580810760 8.3220167160034197 11.3841819763183612
2.2242708206176762 1.2957882881164551 11.5111999511718750
17.1266212463378906 5.6821188926696813 11.3505945205688477
2.3310022354125981 12.6644821166992188 11.5208377838134766
9.6788539886474609 5.6624736785888672 0.5559439659118652
24.3942794799804510 12.6468000411987358 0.4381265640258790
12.6520414352417134 8.7202043533325213 4.4541101455688477
14.3499317169189453 9.2860975265502930 5.4110512733459473
13.0238275527953995 10.6743946075439453 5.4047532081604013
22.2504463195800639 3.9897713661193848 5.9121322631835946
5.3963317871093750 7.1329689025878995 5.5347018241882324
10.7437829971313459 8.5075531005859464 10.0219602584838867
25.5207290649414205 1.4543261528015141 9.9535264968872070
15.7551975250244141 8.4261569976806641 2.0348029136657715
1.0516881942749023 1.5327515602111816 2.0583660602569580
15.7778921127319371 5.3175401687622106 1.9155883789062500
1.0542736053466808 12.4451084136962997 1.9969973564147951
10.7772502899169815 5.4793405532836932 9.9480171203613281
25.5268287658691513 12.3677415847778427 9.8879833221435547
27.6743240356445312 1.3964509963989258 0.9293928146362305
13.6057357788085938 8.5138807296752930 11.0827388763427734
-1.0976161956787138 1.5843930244445801 11.0804500579834002
13.6591281890869016 5.4393644332885742 10.9748039245605469
-1.0781517028808618 12.4922094345092756 11.0273590087890625
12.9290103912353516 5.3343191146850586 0.9297161102294922
27.6767959594726669 12.3062114715576172 0.8523092269897461
7.9366641044616708 11.0664920806884819 2.9495332241058354
22.8984794616699254 4.0664572715759277 2.8310797214508057
18.3245658874511612 11.0898990631103516 8.9951095581054688
3.6222867965698189 4.0637598037719727 9.0061206817626953
18.5759048461914134 2.8930952548980722 9.0452919006347656
3.7137928009033154 9.8352861404418945 9.0804452896118164
8.2194099426269531 2.8702220916748074 2.9308156967163086
22.8817825317382812 9.8471908569335938 2.8428354263305669
7.3978548049926767 11.0172395706176811 6.0606079101562509
19.1858863830566371 11.1548271179199219 5.9760146141052255
4.4483404159545890 4.1710305213928249 6.0218462944030762
19.1783828735351385 2.9511718750000004 5.9300818443298349
4.3460931777954048 9.9265060424804688 6.0235948562622070
7.3953003883361808 2.7996416091918945 5.9581079483032227
22.1230487823486328 9.7702913284301758 5.8862142562866211
6.4118881225585929 11.1466922760009766 10.2807922363281268
21.2634658813476456 4.2124042510986355 10.2772903442382812
20.1641921997070241 11.0329895019531250 1.5741314888000488
5.4725837707519531 4.0016317367553746 1.6481900215148928
20.1589374542236328 2.8252527713775635 1.6391940116882329
5.2845225334167445 9.7660932540893626 1.7087769508361816
6.3427972793579093 2.9290795326232919 10.3172454833984375
21.0794029235839879 9.9637012481689453 10.2305450439453125
9.9366827011108381 9.6704597473144638 0.9835195541381837
24.8945999145507635 2.6564769744873051 0.9394497871398926
16.3923854827880859 9.7363643646240270 10.8873329162597656
1.7096414566040039 2.7364735603332520 10.9663553237915039
16.4807548522949219 4.2676320075988770 10.8924617767333984
1.7134714126586879 11.2577066421508771 10.9983139038085938
10.1636981964111328 4.1814556121826172 1.0165734291076660
24.8761672973632812 11.1805896759033203 0.9498276710510255
8.5247564315795898 9.6894283294677770 8.5782165527343750
23.2529964447021555 2.6785168647766091 8.4795341491699219
18.1328144073486328 9.6332063674926758 3.4966087341308594
3.3653860092163090 2.6391797065734863 3.5471272468566903
18.0485744476318146 4.2557096481323242 3.4257347583770752
3.2921829223632768 11.2360773086547852 3.4599604606628418
8.4806032180786133 4.2794556617736816 8.4535655975341797
23.2428932189941406 11.2942218780517578 8.3228254318237305
5.5100822448730460 0.0247774124145508 9.4488677978515643
20.3422813415527344 7.0419669151306143 9.3794841766357422
21.0542011260986364 -0.0616993904113770 2.4546465873718266
6.2459807395935059 6.8770017623901385 2.5257074832916260
4.1669206619262615 6.8616371154785156 9.8600816726684570
22.4235305786132884 6.9728784561157227 2.0170440673828129
7.5921592712402344 0.0383076667785645 2.1539733409881592
19.0262088775634552 13.8772125244140625 9.7741689682006836
6.9184260368347168 7.0488538742065430 8.2401704788208008
19.7028884887695312 6.8591923713684135 3.6793754100799561
4.8854532241821289 13.8894176483154297 3.7302658557891846
21.7032966613769460 0.0181927680969238 8.1534738540649414
21.2296028137207031 6.7712488174438477 6.3803763389587402
6.4326329231262207 13.8252182006835991 6.4421782493591317
20.1259460449218750 0.1311221122741699 5.4643611907958984
8.5799160003662216 6.8481235504150391 0.6318707466125488
17.9902648925781286 7.0427942276000985 11.2326583862304688
3.2038507461547812 0.0158162117004395 11.3707389831542969
23.4010925292968750 -0.0873818397521973 0.5896124839782715
