POSCAR file created from dimer generator script with atoms sorted 
1.0
29.4686241149902344 -0.0699228197336197 -0.0508829317986965
-0.0335787981748581 13.9991369247436523 -0.0137711204588413
-3.2760660648345947 -0.0040951701812446 12.0236673355102539
Al C H O Si
1 5 11 155 75
Cartesian
12.8318300247192383 8.4495000839233416 1.0439200401306155
12.2381696701049805 7.2929000854492196 6.3242797851562509
12.6190004348754883 8.7131500244140625 6.7746500968933114
12.8031301498413068 9.4244403839111328 5.4899501800537109
12.3792495727539098 7.2921800613403311 4.7882699966430664
13.5029497146606445 6.4606699943542480 4.2281999588012704
12.9020595550537109 6.5398402214050293 6.7652502059936532
11.2114200592041016 7.0476498603820783 6.6190400123596200
11.8523302078247070 9.2298097610473651 7.3704099655151376
13.5652303695678693 8.7771596908569354 7.3293399810791025
15.1064500808715820 10.1403903961181641 5.5282797813415527
13.6144895553588867 6.6327700614929190 3.1492400169372559
13.2641897201538086 5.3990302085876465 4.3803300857543954
11.4325704574584961 7.0867700576782235 4.2744398117065430
14.4418697357177717 6.6960401535034180 4.7467298507690430
13.6600599288940430 10.7753896713256836 5.5113401412963867
12.5361900329589844 11.1467599868774414 4.3869600296020517
10.1133203506469727 9.5258102416992188 8.8960199356079119
24.8097000122070312 2.4543499946594243 8.8811302185058594
16.5923595428466761 9.2907199859619123 3.1636099815368648
1.7918796539306638 2.4997396469116215 3.1345999240875244
16.4841499328613317 4.3171000480651855 3.0089900493621831
1.7185297012329102 11.4571304321289045 3.1002600193023682
10.0492095947265607 4.4847698211669922 8.8665399551391619
24.7956008911132812 11.4026699066162109 8.7943601608276367
12.3062496185302752 8.9854602813720703 10.2376098632812500
-2.4044399261474614 2.0638103485107426 10.2295303344726562
14.2730503082275391 8.9823198318481445 1.9064502716064451
-0.4981803894042970 2.0094399452209473 1.8918600082397463
14.2815904617309570 4.7553501129150391 1.6736998558044434
-0.4858999252319336 11.8938198089599609 1.7338800430297852
12.3376703262329102 4.9832401275634775 10.1313400268554705
-2.3984003067016606 12.0361003875732440 10.1767196655273438
10.7887001037597656 6.9951000213623047 9.3683795928955078
25.4321002960205007 13.9174699783325231 9.3924798965454102
15.8051300048828107 6.8417201042175302 2.4758100509643555
1.0833797454833980 13.9830703735351562 2.5364699363708501
9.9166698455810547 8.5383701324462908 11.3674297332763672
24.7134990692138672 1.5513200759887693 11.3650197982788086
16.6326999664306605 8.5585403442382812 0.6508698463439941
1.8241205215454102 1.6391701698303223 0.6361699104309082
16.6597003936767614 5.2204599380493173 0.5362100601196289
1.8712301254272468 12.3480195999145526 0.5910401344299318
9.9928598403930664 5.3569197654724130 11.3487300872802752
24.7066097259521484 12.2449998855590820 11.2856197357177752
11.4648504257202166 9.4730195999145508 1.3734502792358401
26.4411392211914027 2.3731999397277828 1.3338999748229983
14.7994098663330078 9.5536098480224609 10.6807899475097656
0.1049804687499996 2.6072397232055660 10.7228298187255859
14.9138603210449219 4.4915399551391602 10.5201501846313494
0.1458196640014640 11.5100698471069354 10.6194601058959979
11.7755002975463867 4.1980500221252441 1.1805200576782229
26.4704895019531286 11.2836399078369123 1.2289400100708008
12.5213899612426758 6.7754697799682617 1.4673099517822268
27.2854690551757812 13.8450298309326190 1.2443699836730957
14.0378704071044904 6.9927902221679696 10.6533403396606463
-0.7075901031494141 0.0444297790527344 10.6955900192260742
3.9468498229980469 0.0636200904846191 9.9208803176879883
18.7675304412841797 7.1115999221801758 9.8009195327758807
22.5955009460449219 13.8789100646972674 2.0135300159454350
7.8013501167297363 6.7494702339172363 2.0649399757385254
6.2333698272705078 12.7457199096679688 10.0885801315307617
21.0561008453369141 5.8133401870727539 10.1597003936767578
20.2691307067871094 12.6181497573852539 1.9072299003601079
5.3999900817871094 5.5661802291870126 2.0664598941802979
20.3685894012451207 1.2190599441528318 1.7344398498535156
5.5819301605224609 8.1818704605102539 1.8313198089599609
6.2905101776123029 1.3531198501586914 9.9509401321411133
21.1136894226074219 8.4045400619506854 9.7952299118041992
5.5417399406433105 13.9548797607421893 7.7955498695373535
20.3896293640136719 6.8506298065185547 7.7677698135375977
20.9637107849121058 0.0398502349853516 4.0736699104309082
6.2215700149536124 6.9845600128173837 4.1462402343750009
3.2828197479248042 5.6425199508666992 9.2386703491210938
18.0387001037597656 12.6836004257202166 9.2616395950317401
23.2048397064209020 5.6221899986267090 2.4626600742340088
8.2224903106689471 12.6480503082275408 2.6693100929260258
23.2155799865722656 8.2742300033569318 2.5796899795532231
8.5028896331787109 1.2846097946166990 2.6632399559020996
3.4723100662231445 8.2840795516967756 9.5070695877075195
18.4129905700683594 1.2958097457885742 9.3175001144409197
5.6631197929382306 6.7889199256896982 9.2263898849487305
20.4997596740722621 13.6104297637939453 9.1422300338745117
20.9177398681640589 6.9534997940063468 2.6169300079345703
6.0758600234985343 0.2521100044250488 2.7184400558471680
4.2289896011352539 6.6547498703002930 11.4699296951293963
19.0417499542236293 13.8321895599365234 11.3961095809936523
22.3527507781982457 7.0542497634887713 0.3946199417114258
7.5720100402832040 0.0429902076721191 0.5267300605773926
6.4489498138427725 7.4305400848388663 6.7334198951721209
21.1594390869140661 0.4162797927856445 6.6798000335693350
20.1979198455810511 6.4489798545837402 5.1696600914001465
5.4401397705078134 13.4981403350830096 5.2007298469543457
7.8172497749328613 5.7166299819946298 8.1546297073364258
22.7146396636962891 12.7803602218627947 7.9472899436950692
18.6855697631835973 5.7241902351379395 3.1564199924468999
4.0629301071166992 12.6325502395629918 3.1339299678802490
18.9895000457763707 8.2914400100708008 3.7701399326324467
3.9161996841430664 1.1668400764465332 3.9304099082946782
7.7957901954650879 8.2601604461669922 8.8334703445434570
22.4466495513915980 1.2989797592163088 8.7922496795654297
4.5542993545532227 5.7837800979614258 5.8644099235534677
19.2996196746826172 12.7596302032470721 5.7114200592041025
22.2898998260498011 5.5349597930908203 6.4460301399230957
7.4784398078918466 12.5799303054809588 6.5504598617553711
22.0089092254638672 8.1625795364379918 6.0882101058959961
7.2567701339721662 1.1962900161743164 6.1874699592590323
4.3778600692749023 8.3999900817871094 5.4405798912048340
19.0915794372558629 1.3925199508666992 5.4291801452636719
9.0816898345947266 10.1476402282714844 2.2941300868988037
24.0942707061767578 3.1364600658416752 2.2628200054168701
17.0404605865478551 10.2268800735473633 9.4777097702026367
2.4098596572875968 3.1389400959014897 9.5610799789428711
17.2593593597412109 3.6695001125335693 9.5929698944091815
2.5122098922729488 10.7429304122924805 9.6877803802490252
9.4895801544189471 3.7432498931884761 2.4317901134490967
24.1146507263183629 10.7612304687500000 2.3191699981689453
6.4715199470520020 10.6690301895141584 2.3555099964141846
21.4581203460693359 3.6295800209045415 2.1991999149322510
19.6567497253417969 10.6359796524047869 9.8097400665283203
5.0215101242065412 3.6883199214935294 9.7504100799560565
19.9295196533203089 3.4299900531768799 9.7587604522705078
5.1760601997375488 10.3433198928833008 9.5772104263305664
6.8684101104736328 3.3365199565887451 2.1479299068450928
21.4992504119873047 10.2506599426269531 2.0765099525451660
7.9477400779724121 10.8312902450561541 4.5527400970458984
22.8880691528320348 3.8739199638366699 4.4343299865722656
18.4946098327636683 10.8638696670532244 7.4075899124145517
3.7389497756957999 3.7704899311065674 7.4182500839233407
18.6481990814209020 3.1286499500274658 7.4483599662780762
3.6260700225830069 9.9658098220825195 7.4690098762512207
8.0721797943115234 3.1146697998046875 4.5253400802612314
22.7356491088867188 10.1152496337890625 4.4312400817871094
8.3670902252197266 10.1494903564453125 7.0272397994995117
23.1509895324707031 3.0782699584960938 6.9092302322387695
18.2124195098876953 10.5341796875000018 4.8468599319458008
3.5065097808837891 3.6182498931884770 4.8249602317810067
18.1922492980957031 3.8311400413513184 4.9892101287841797
3.4435596466064458 10.8325996398925746 5.0209097862243652
8.3894395828247070 3.3814198970794678 7.1033101081848136
23.1357593536376953 10.3430900573730487 7.0151000022888184
5.8552498817443848 10.5120801925659180 6.1518797874450692
20.7159194946289062 3.4575500488281250 5.8497200012207040
20.6622505187988281 10.4779100418090803 5.9966697692871094
5.9321699142456064 3.5047099590301518 5.9961099624633789
7.8233299255371103 10.7695798873901385 9.5677700042724627
22.5641899108886719 3.8402700424194340 9.3814697265625018
18.8274002075195348 10.4515695571899432 2.2741899490356445
4.2046403884887695 3.2253301143646240 2.2930200099945073
18.8384895324707031 3.1661000251770015 2.5119700431823730
3.8986701965332027 10.0720996856689435 2.5035998821258549
7.6946001052856436 3.5481600761413574 9.6674995422363281
22.3199901580810476 10.7171802520751971 9.5232696533203125
6.4420700073242188 10.8310003280639648 11.8640699386596697
21.5217990875244141 3.8259100914001456 11.8300895690917969
19.9987506866455078 10.8695898056030273 -0.0356998443603516
5.3364500999450684 3.8692600727081294 0.0317502021789551
19.9094600677490270 3.1870400905609131 0.0791897773742676
5.1076197624206543 10.1228904724121112 0.1357798576354980
6.4268898963928205 3.1049799919128418 11.9279699325561541
21.2605895996093714 10.0854101181030273 11.8408098220825195
9.2701501846313477 8.2873897552490234 0.4147801399230957
24.2310009002685547 1.2827901840209961 0.3731198310852051
17.0153007507324219 8.3220195770263654 11.3841800689697266
2.2242803573608390 1.2957897186279299 11.5111904144287127
17.1266307830810511 5.6821198463439950 11.3505897521972674
2.3310098648071285 12.6644802093505859 11.5208301544189453
9.6788501739501935 5.6624798774719238 0.5559501647949219
24.3942699432373047 12.6468000411987305 0.4381299018859863
12.6520395278930682 8.7201995849609375 4.4541101455688485
14.2264499664306641 9.7576103210449219 5.6373801231384286
12.4522800445556641 10.8781604766845721 5.3213000297546387
22.2504405975341832 3.9897699356079106 5.9121298789978036
5.3963298797607422 7.1329698562622070 5.5346999168396005
10.7437801361083984 8.5075502395629883 10.0219602584838867
25.5207290649414062 1.4543299674987795 9.9535303115844727
15.7552003860473615 8.4261598587036115 2.0348100662231450
1.0516901016235352 1.5327601432800293 2.0583701133728027
15.7778902053833008 5.3175401687622070 1.9155902862548830
1.0542697906494141 12.4451103210449219 1.9969999790191650
10.7772502899169922 5.4793400764465341 9.9480104446411133
25.5268192291259766 12.3677301406860369 9.8879804611206055
27.6743202209472621 1.3964400291442873 0.9293899536132811
13.6057395935058558 8.5138797760009766 11.0827398300170898
-1.0976095199584968 1.5844001770019531 11.0804395675659180
13.6591300964355504 5.4393701553344727 10.9748001098632812
-1.0781497955322270 12.4922103881835938 11.0273704528808594
12.9290103912353516 5.3343200683593759 0.9297199249267578
27.6767807006835902 12.3062095642089862 0.8523101806640624
7.9366698265075701 11.0664901733398455 2.9495298862457275
22.8984794616699219 4.0664601325988770 2.8310799598693852
18.3245601654052734 11.0898895263671875 8.9951095581054705
3.6222896575927725 4.0637598037719735 9.0061101913452166
18.5759105682373047 2.8930997848510747 9.0452899932861310
3.7137899398803715 9.8352804183959961 9.0804395675659180
8.2194099426269531 2.8702297210693355 2.9308199882507324
22.8817806243896555 9.8471899032592773 2.8428399562835693
7.3978600502014169 11.0172395706176776 6.0606098175048828
19.1858806610107386 11.1548204421997070 5.9760098457336426
4.4483404159545898 4.1710300445556641 6.0218400955200195
19.1783790588378906 2.9511699676513672 5.9300799369812012
4.3460893630981436 9.9265003204345721 6.0235900878906250
7.3952999114990225 2.7996501922607422 5.9581098556518555
22.1230392456054688 9.7702903747558594 5.8862199783325195
6.4118900299072248 11.1466903686523455 10.2807903289794922
21.2634696960449254 4.2123999595642090 10.2772903442382812
20.1641807556152344 11.0329904556274432 1.5741400718688969
5.4725899696350089 4.0016398429870597 1.6481900215148926
20.1589393615722656 2.8252601623535156 1.6392002105712891
5.2845201492309570 9.7660903930664062 1.7087802886962893
6.3428101539611808 2.9290800094604497 10.3172397613525391
21.0794105529785156 9.9637002944946271 10.2305498123168945
9.9366798400878888 9.6704597473144531 0.9835200309753418
24.8945903778076136 2.6564702987670903 0.9394502639770508
16.3923892974853516 9.7363595962524414 10.8873395919799805
1.7096395492553702 2.7364797592163086 10.9663496017456072
16.4807491302490199 4.2676301002502450 10.8924598693847674
1.7134695053100577 11.2577104568481445 10.9983100891113281
10.1637001037597656 4.1814599037170410 1.0165700912475586
24.8761692047119105 11.1805896759033221 0.9498300552368165
8.5247602462768555 9.6894302368164080 8.5782098770141602
23.2530097961425781 2.6785202026367188 8.4795398712158203
18.1328105926513672 9.6332101821899414 3.4966099262237544
3.3653898239135733 2.6391801834106441 3.5471200942993173
18.0485706329345668 4.2557101249694833 3.4257400035858159
3.2921895980834956 11.2360801696777326 3.4599599838256836
8.4806098937988281 4.2794599533081064 8.4535598754882812
23.2428894042968750 11.2942199707031268 8.3228302001953125
5.5100898742675763 0.0247898101806641 9.4488601684570330
20.3422794342040980 7.0419597625732440 9.3794803619384766
21.0206203460693324 13.9374399185180682 2.4408800601959233
6.2459797859191895 6.8769998550415048 2.5257101058959961
4.1669206619262678 6.8616399765014648 9.8600797653198260
22.4235305786132812 6.9728798866271973 2.0170500278472905
7.5921602249145517 0.0383100509643555 2.1539800167083740
19.0262107849121094 13.8772096633911133 9.7741699218750000
6.9184298515319815 7.0488600730895987 8.2401695251464844
19.7028903961181641 6.8591899871826181 3.6793799400329590
4.8854494094848633 13.8894195556640643 3.7302699089050297
21.7033004760742188 0.0181899070739746 8.1534700393676776
21.2296009063720703 6.7712497711181650 6.3803801536560067
6.4326300621032715 13.8252201080322248 6.4421801567077637
20.1259403228759766 0.1311202049255371 5.4643602371215820
8.5799102783203143 6.8481202125549325 0.6318697929382324
17.9902591705322266 7.0427899360656747 11.2326602935791016
3.2038602828979488 0.0158200263977051 11.3707304000854492
23.3675098419189418 13.9117603302001953 0.5758399963378906
